          89
 Energy =     -1.01334116 a.u.  #Cluster:    1
C          -3.77970155      2.02121108      1.97936310
C          -2.70811862      1.15666765      2.20334822
C          -2.73129983     -0.16592315      1.73246925
C          -3.82482456     -0.62847716      0.98907869
C          -4.90872758      0.22029582      0.78760543
C          -4.89461548      1.54515723      1.27579916
H          -3.77256284      3.04627302      2.34707356
H          -1.83392931      1.51166922      2.77175636
H          -3.83851744     -1.65420712      0.60335335
O          -5.96195257      2.38597120      1.10386945
H          -6.69660289      1.90524653      0.62087018
O          -6.11224987     -0.21376007      0.21812821
C          -6.02626674     -0.53891128     -1.19616674
H          -7.06241505     -0.80478076     -1.43833930
H          -5.69303317      0.33656101     -1.76087002
H          -5.35322361     -1.38759813     -1.34512188
C          -1.64475256     -1.14165947      2.14091585
H          -0.81987616     -0.64649370      2.72443282
C          -1.03030221     -1.87569408      0.92133546
H          -1.13050431     -1.26221111      0.00287126
C          -1.52801799     -3.31759023      0.71896568
H          -0.74304133     -3.95191835      0.27061769
H          -1.85298119     -3.77270364      1.68891868
O          -2.30234638     -2.09631744      2.97593435
H          -2.12441381     -1.88980033      4.01469642
O          -2.71128305     -3.34166427     -0.09374260
H          -2.48990041     -3.13629716     -1.02433607
O           0.39361469     -2.12477866      1.18499768
C           1.33387297     -1.29312745      0.58947365
C           1.48256151      0.07928781      0.91066976
C           2.24893587     -1.92864899     -0.25400935
C           2.58472029      0.78781807      0.41515424
C           3.34073571     -1.20846015     -0.74933087
H           2.11558928     -2.98361006     -0.48997161
C           3.50654584      0.13708385     -0.40984273
H           2.72437135      1.83583894      0.67060779
H           4.06406124     -1.70320782     -1.39432000
H           4.36498489      0.69016491     -0.79160029
O           0.46626667      0.62309245      1.65138912
C           0.76133853      1.80208016      2.44957883
H           1.20918707      2.59233851      1.84778553
H          -0.25091441      2.07843833      2.79816551
H           1.38859746      1.50490844      3.29923173
C          -6.33330202     -2.34517044      3.08903769
H          -7.07944846     -2.88803397      3.70121439
H          -6.35808228     -1.27180105      3.36351415
C          -4.91192713     -2.88027229      3.26695466
H          -4.20105305     -2.37610271      2.54668829
H          -4.52414535     -2.58277252      4.28262868
C          -3.34745205     -4.77150862      3.49800981
H          -3.13044616     -5.83029369      3.30723167
H          -2.57737135     -4.16419990      2.93656416
H          -3.13449443     -4.55718803      4.57262336
C          -4.99783036     -4.77620152      1.67001224
H          -4.97700114     -5.86413017      1.52758195
H          -5.97705275     -4.38187798      1.31635344
H          -4.22948995     -4.32580321      1.00040120
C          -5.71894824     -5.11881855      4.01465792
H          -5.50577794     -6.19809338      4.04599072
H          -5.64492924     -4.72658285      5.05556258
H          -6.76346697     -4.98643809      3.68586723
N          -4.75427658     -4.38558661      3.10898515
O          -6.80098187     -2.51905034      1.75138434
H          -6.52578821     -1.74491303      1.17801743
Cl         -0.67195503      0.76147715      5.14303394
C          -1.46017901     -4.00253768      6.43226183
H          -2.25942747     -4.41762564      5.79717153
H          -0.80555944     -4.82589368      6.73413643
H          -1.95399665     -3.60378518      7.33246786
C          -0.69873971     -2.88961815      5.72433914
H           0.12248969     -2.49763485      6.37106816
C          -0.15047288     -3.35395354      4.35868955
O          -1.58041175     -1.83878511      5.42300528
H          -0.96618871     -0.61400920      5.33478160
O           0.72177307     -2.42088893      3.89693504
H           0.86377821     -2.45211012      2.89308659
O          -0.44288211     -4.33191861      3.70042610
C          -4.15326201     -0.10791314      5.42011032
H          -3.68850839     -0.84221955      4.73773072
H          -5.07823436      0.26194370      4.97232253
H          -3.44052038      0.73931143      5.44811110
C          -4.33915722     -0.66860309      6.81910522
H          -4.72629173      0.08707048      7.54857304
C          -5.33729078     -1.85793649      6.76188195
O          -3.16396587     -1.16145468      7.39121225
H          -2.48788641     -1.48627004      6.64718903
O          -6.44832214     -1.56102101      7.50674377
H          -7.11216467     -2.29374931      7.54959798
O          -5.28821154     -2.92671580      6.18557967
          89
 Energy =     -1.01004060 a.u.  #Cluster:    2
C          -4.63277706      1.63774369     -0.62136396
C          -3.33852736      1.54163666     -0.10107623
C          -2.98042062      0.48295766      0.74450974
C          -3.91461199     -0.50925315      1.07595813
C          -5.20384017     -0.41749349      0.56963662
C          -5.56880026      0.65658364     -0.28320550
H          -4.92048977      2.45269715     -1.28328036
H          -2.60213485      2.30325042     -0.36385198
H          -3.63207185     -1.35545058      1.73111304
O          -6.83950164      0.76331216     -0.78342611
H          -7.38321053     -0.02523453     -0.47675313
O          -6.24625908     -1.27449396      0.89493436
C          -5.95216511     -2.69048838      0.73026990
H          -6.88163713     -3.15761511      1.07099528
H          -5.75240747     -2.90461292     -0.32203939
H          -5.09894144     -2.98574840      1.36045668
C          -1.58947285      0.43806020      1.32804663
H          -1.21567118      1.47394964      1.55370491
C          -0.56612241     -0.27630853      0.42059052
H          -0.31198704      0.35717111     -0.45783741
C          -0.94701393     -1.70067876     -0.02222859
H          -0.04213155     -2.28226506     -0.28622614
H          -1.51698100     -2.24643783      0.75363821
O          -1.64213465     -0.17688624      2.62152608
H          -0.51373046      0.37253362      3.47581952
O          -1.68521322     -1.63749673     -1.24348292
H          -2.59470037     -1.30623455     -1.07219396
O           0.59136898     -0.48563073      1.28485242
C           1.74568739      0.20653141      0.96771934
C           1.82724596      1.61362957      0.85670847
C           2.90108062     -0.57759087      0.86049691
C           3.06763888      2.22697350      0.65205758
C           4.13594274      0.04523098      0.66152887
H           2.81627674     -1.66057387      0.95371032
C           4.21746759      1.43702604      0.55578773
H           3.13326909      3.30886903      0.56554546
H           5.03787703     -0.56045852      0.58560461
H           5.18334986      1.91355501      0.39509907
O           0.63437945      2.32593490      0.87243293
C           0.61468754      3.46833007      1.77011948
H           1.34648711      4.21505980      1.45565140
H          -0.40905902      3.83951233      1.64796538
H           0.79479403      3.13079384      2.79848774
C          -4.90930517     -2.89556574      4.86690359
H          -5.47197915     -3.48194644      4.11050331
H          -3.96805127     -3.44540991      5.09185250
C          -4.69404857     -1.47615827      4.34455686
H          -4.18345121     -1.57354959      3.32401301
H          -5.67083034     -0.98313634      4.14347492
C          -3.65783639      0.74650171      4.51475096
H          -3.00831109      1.43562527      5.08310035
H          -3.13078565      0.59171921      3.53183501
H          -4.61430929      1.24409423      4.30448082
C          -2.48929423     -1.19032377      5.49017604
H          -1.82720010     -0.50900733      6.05392387
H          -2.56775829     -2.14139726      6.04031922
H          -1.94863990     -1.40997956      4.53029425
C          -4.53417261     -0.32316377      6.55068843
H          -3.93228365      0.32731400      7.20505877
H          -5.51966362      0.15011151      6.40853216
H          -4.71180730     -1.28263154      7.08599833
N          -3.84167907     -0.57330248      5.22905936
O          -5.61824296     -2.91506545      6.11335336
H          -6.52642405     -2.48481072      6.02983150
Cl         -0.14925719      1.14748562      4.54678957
C          -1.52615413     -5.80600371      2.27042825
H          -2.21567906     -5.77127613      1.41727424
H          -0.53657238     -5.49817204      1.90774849
H          -1.45661492     -6.85236440      2.59264272
C          -1.99010527     -4.91978726      3.41434144
H          -1.28479531     -4.92996768      4.27479797
C          -2.25160580     -3.48277092      2.91645046
O          -3.21490465     -5.39493459      3.98829932
H          -3.93700340     -5.32884169      3.31656706
O          -1.30009055     -2.65419558      3.02633396
H          -1.46383704     -1.26140216      2.58972075
O          -3.39211498     -3.19456741      2.49418037
C          -7.05448299     -4.08078660      8.93262088
H          -6.31279068     -3.31049062      8.67771512
H          -7.66100539     -3.70788630      9.76674925
H          -6.48560519     -4.94892129      9.30232940
C          -7.89939253     -4.48566288      7.73562649
H          -8.64779954     -5.28361485      7.97610277
C          -8.62517057     -3.23065679      7.19710946
O          -7.13989925     -5.04162715      6.69169372
H          -6.32669409     -4.46577774      6.47121086
O          -9.91998853     -3.21073985      7.61329206
H         -10.43269855     -2.41957510      7.28290294
O          -8.19748550     -2.32112431      6.50821596
          89
 Energy =     -1.00246359 a.u.  #Cluster:    3
C          -2.36840125      1.99311062      0.47214035
C          -1.39101854      1.25929406      1.15689957
C          -1.45036744     -0.13734282      1.19534248
C          -2.52491172     -0.83442976      0.61604408
C          -3.49198626     -0.11262510     -0.07284493
C          -3.39576476      1.29850948     -0.15930329
H          -2.30762545      3.07855577      0.38884277
H          -0.57534921      1.79275010      1.64271184
H          -2.57702876     -1.92182793      0.69962078
O          -4.31348987      2.02392109     -0.91068672
H          -4.99639846      1.38680644     -1.28878503
O          -4.60210275     -0.63487722     -0.71191826
C          -4.39998336     -1.91990195     -1.36556960
H          -5.30821304     -2.01239496     -1.97048633
H          -3.49887583     -1.89699012     -1.99298945
H          -4.33827302     -2.70771396     -0.60991611
C          -0.28559282     -0.92227919      1.75433487
H           0.38429084     -0.30522027      2.39413047
C           0.50363730     -1.52214892      0.56173331
H           0.54895094     -0.78870938     -0.28572222
C          -0.04583106     -2.86896520      0.07324220
H           0.62389649     -3.70199412      0.36804818
H          -1.06861752     -3.05639053      0.46132217
O          -0.84932312     -1.96973186      2.56264907
H          -0.12852300     -2.46207951      3.01109236
O          -0.07191856     -2.84540761     -1.34843805
H          -0.63403092     -1.69599756     -1.84201840
O           1.86081119     -1.84306227      0.99856745
C           2.78736005     -0.82837343      1.08687691
C           2.86517928      0.33541431      0.28398243
C           3.78681873     -1.07821491      2.04344077
C           3.89767301      1.25928856      0.48715488
C           4.82462484     -0.16364715      2.21761637
H           3.72804136     -1.98885721      2.63917166
C           4.87412555      1.00710270      1.45211214
H           3.93947984      2.16373416     -0.11655688
H           5.59661731     -0.35938773      2.96132955
H           5.67943344      1.72317897      1.60648100
O           1.95256329      0.47580731     -0.74984964
C           1.32250609      1.78195712     -0.88039479
H           1.98485552      2.44491399     -1.43649940
H           0.40458670      1.54763414     -1.45127971
H           1.05923237      2.19664405      0.09474709
C           2.60484542     -4.52428798     -2.74592792
H           3.16248759     -5.40641770     -3.11807943
H           3.27291364     -3.90797988     -2.11412585
C           1.95006839     -3.74125590     -3.89309784
H           2.14281412     -4.22221423     -4.87293693
H           0.81591093     -3.83267185     -3.75785872
C           1.26846319     -1.58532042     -4.85420921
H           1.37649595     -0.48961416     -4.85083555
H           1.30498296     -1.95255029     -5.88992399
H           0.22861904     -1.80751234     -4.48284917
C           3.67136872     -2.09303250     -4.58757343
H           3.94984880     -1.02685167     -4.65837454
H           4.44350812     -2.59666158     -3.98032651
H           3.71486477     -2.51914917     -5.60355087
C           2.28721986     -1.61486038     -2.61374546
H           2.33929484     -0.51128560     -2.65509100
H           1.32842682     -1.85094573     -2.06511294
H           3.09961083     -1.97007507     -1.96125439
N           2.29702349     -2.26079704     -3.97206852
O           1.58946968     -5.09761100     -1.93517921
H           0.96229990     -4.37545054     -1.60613409
Cl         -1.09269399     -0.54614647     -2.54771145
C          -3.12227953     -5.98694960     -4.59880384
H          -2.20678925     -6.30383061     -5.11270545
H          -3.14556454     -6.48679660     -3.62154590
H          -3.96723823     -6.36355422     -5.19114826
C          -3.20987847     -4.47399739     -4.45583347
H          -4.13851675     -4.14833411     -3.93119095
C          -1.94466237     -3.95243630     -3.75142707
O          -3.30818501     -3.84273887     -5.72990928
H          -2.41719498     -3.79510852     -6.15573596
O          -2.03326969     -3.93579386     -2.44460639
H          -1.10094806     -3.53892488     -1.89657672
O          -0.94567963     -3.60384842     -4.38337583
C          -0.47813052      1.74098201     -4.84255828
H           0.24179851      1.37244033     -4.09988934
H          -1.27939904      0.98516678     -4.90234057
H           0.02342116      1.78137109     -5.81580506
C          -1.03616970      3.10528770     -4.47130534
H          -1.77284487      3.48886900     -5.21845977
C          -1.64898424      3.03762755     -3.06271234
O          -0.02121711      4.10598611     -4.47371833
H           0.59865721      3.97465472     -3.71894714
O          -2.97526462      2.81152755     -3.13712785
H          -3.42571119      2.64306958     -2.22120263
O          -1.05440249      3.17535225     -2.01401622
          89
 Energy =     -1.00003688 a.u.  #Cluster:    4
C          -2.96082166      2.59600739     -1.75449755
C          -1.88848337      2.21844333     -0.93622205
C          -2.11551369      1.54500340      0.26821330
C          -3.42375436      1.24944029      0.68165000
C          -4.49612621      1.62650359     -0.11797194
C          -4.25937579      2.29527635     -1.34793753
H          -2.79563376      3.12853002     -2.69320188
H          -0.87292512      2.46716836     -1.24309164
H          -3.58666439      0.74662710      1.63712855
O          -5.29206938      2.65302476     -2.19139557
H          -6.17415262      2.57426474     -1.72414401
O          -5.83128010      1.40871179      0.14330679
C          -6.17770071      1.00254483      1.49565698
H          -7.27322732      0.97922505      1.44724740
H          -5.76831002      0.00832156      1.70628085
H          -5.82071864      1.74170807      2.21954845
C          -0.94163192      1.16599732      1.15199244
H          -0.18396559      2.00368971      1.16972637
C          -0.25193426     -0.10803679      0.61410666
H          -0.01394913      0.02097733     -0.46732793
C          -1.00929957     -1.42828671      0.82285612
H          -0.30744459     -2.28189629      0.88463206
H          -1.65304230     -1.42038181      1.71830210
O          -1.34073417      1.02260469      2.50175028
H          -2.31320545      0.12737074      2.84642287
O          -1.78348896     -1.70480487     -0.34705002
H          -2.55388173     -1.09404172     -0.39633688
O           0.99025757     -0.28035601      1.37922762
C           2.16072537     -0.02731833      0.67922651
C           2.68767725      1.28878032      0.59870930
C           2.87377173     -1.10391042      0.15194401
C           3.92583992      1.50987106     -0.01086703
C           4.11686933     -0.87556379     -0.45119073
H           2.45285531     -2.10793562      0.21329534
C           4.63313041      0.41904328     -0.53135088
H           4.34249255      2.51094094     -0.08005989
H           4.67716390     -1.71347799     -0.86296576
H           5.59992488      0.58890260     -1.00596771
O           1.91080553      2.25376962      1.19454767
C           2.12039276      3.63402038      0.79554640
H           2.10194578      3.73075007     -0.29216627
H           1.23302665      4.12381608      1.24478677
H           3.04900118      4.00939330      1.22715274
C          -1.33526728      1.62581733      5.83514912
H          -1.69464805      1.19001782      4.88197970
H          -2.01200067      1.31002492      6.65476784
C           0.11340916      1.24021586      6.17686004
H           0.52036415      2.04170265      6.84186272
H           0.12165156      0.29052989      6.75522358
C           2.45800399      0.98003729      5.45945797
H           3.15910273      0.83114111      4.61714221
H           2.77230755      1.89659918      5.98701444
H           2.58265158      0.12517006      6.14440030
C           0.92533822      2.29284870      4.05718456
H           1.71186083      2.29782252      3.27714075
H          -0.03591473      2.28428689      3.47538055
H           0.94502021      3.23820647      4.62130460
C           0.68706088     -0.16488393      4.20045558
H           1.41924279     -0.37574626      3.39445871
H           0.59083845     -1.04484270      4.84636863
H          -0.28055587     -0.04016559      3.62912100
N           1.02862583      1.08942684      4.95986977
O          -1.38850673      3.05289712      5.79581977
H          -1.79301311      3.34175844      4.92050814
Cl         -3.08870182     -0.67726875      3.74005419
C          -4.59448664      2.76928825     -5.22514054
H          -5.06218200      2.17633676     -4.41897064
H          -4.92987862      2.35688234     -6.18375903
H          -3.51248658      2.59650808     -5.15023002
C          -4.91285998      4.24926074     -5.08947286
H          -4.36468427      4.88542205     -5.82718706
C          -6.43232013      4.45336338     -5.23263313
O          -4.51830594      4.77606916     -3.83633819
H          -4.87308397      4.20119388     -3.09006824
O          -6.70823279      4.87555281     -6.51374804
H          -7.67575564      5.02828315     -6.67477746
O          -7.32794872      4.30006765     -4.44079678
C          -3.76428119      5.10602360      1.13532392
H          -3.20035389      4.92145679      0.21076224
H          -4.39940427      4.22646718      1.30794174
H          -4.42248465      5.96475088      0.94413482
C          -2.85915541      5.38143728      2.32761238
H          -3.42783948      5.52693036      3.27685898
C          -1.84748521      4.23067562      2.44899604
O          -2.14604914      6.60471049      2.18679214
H          -1.51979354      6.55426736      1.42603659
O          -2.29776746      3.22373058      3.19729645
H          -1.84398779      2.20160269      2.91676675
O          -0.74780393      4.20838225      1.92040400
          89
 Energy =     -0.99760689 a.u.  #Cluster:    5
C          -2.86521834     -0.10460190     -1.74656374
C          -1.69933707      0.08787372     -0.99526318
C          -1.76517428      0.27203133      0.39061928
C          -3.00635003      0.29761853      1.04273212
C          -4.16776976      0.08483561      0.30983097
C          -4.09979410     -0.11765130     -1.09538161
H          -2.82591442     -0.25001804     -2.82484943
H          -0.73725194      0.09367410     -1.50650061
H          -3.04609237      0.48202478      2.12160835
O          -5.22248567     -0.33072529     -1.85526721
H          -6.03175974     -0.36334156     -1.26815544
O          -5.45138049      0.04907583      0.82033187
C          -5.56149704     -0.19834845      2.25015337
H          -6.62208071     -0.45055283      2.35691779
H          -4.91216533     -1.03015007      2.55582381
H          -5.30316711      0.71418267      2.79548061
C          -0.49116871      0.45305957      1.19135764
H           0.10147422      1.31025158      0.76814409
C           0.36754294     -0.84357412      1.12969990
H           0.03655047     -1.51404205      0.30318906
C           0.48276242     -1.65384739      2.42896538
H           1.47217473     -2.14937582      2.49058890
H           0.30814826     -1.03466790      3.33638668
O          -0.73153262      0.84716741      2.51505197
H          -1.44972746      0.15404486      3.10812532
O          -0.44201634     -2.73409519      2.39830579
H          -1.38617879     -2.39198332      2.45364590
O           1.77159159     -0.46535038      0.87388280
C           2.05071466     -0.16013551     -0.45292657
C           2.26204346      1.20498077     -0.78111467
C           2.21100933     -1.15429169     -1.41307336
C           2.64860807      1.56568001     -2.07077159
C           2.59201659     -0.78532636     -2.71104398
H           2.04771252     -2.19967526     -1.14810738
C           2.80789744      0.55571687     -3.03102741
H           2.82118549      2.60362615     -2.33912316
H           2.71957015     -1.55549176     -3.47054015
H           3.10320133      0.83112762     -4.04377337
O           2.02732642      2.05136475      0.28227017
C           2.27070248      3.46748975      0.08458504
H           1.69814207      3.84220745     -0.76850637
H           1.89676982      3.89258639      1.02576445
H           3.34615764      3.64519303     -0.02228751
C           2.82495199      0.83944190      3.86142487
H           3.62658654      1.17279740      4.55021922
H           2.67554568     -0.25288436      3.93981439
C           1.53474605      1.64558859      4.00949593
H           1.74620769      2.72399498      3.80737451
H           0.78897265      1.32803503      3.18670632
C          -0.50063856      2.21730086      5.24724422
H          -1.15347508      1.98765175      6.10546980
H          -0.38601944      3.30692264      5.15792571
H          -1.06318028      1.86348814      4.33948152
C           1.66440065      2.17525266      6.42979547
H           1.10093992      2.27162551      7.37089395
H           2.59026507      1.61440104      6.63908503
H           1.99279039      3.19019834      6.11393276
C           0.61852927      0.05814453      5.68984551
H          -0.24362623     -0.08486753      6.37127285
H           0.33270349     -0.52667058      4.77043454
H           1.50400269     -0.40934436      6.13781835
N           0.83804965      1.51329581      5.34877533
O           3.37155994      1.11343620      2.56118087
H           2.70829317      0.83705778      1.83190771
Cl         -2.18051256     -0.58547111      4.34898098
C           6.38038326      5.16889465      4.05808667
H           6.39398269      4.69159206      5.04572421
H           6.89644920      4.49622845      3.35832003
H           6.98177576      6.08666718      4.13769846
C           4.97411198      5.49658955      3.58251845
H           4.96207609      5.96919871      2.56862642
C           4.12490184      4.21450311      3.60512758
O           4.34301471      6.47224227      4.39871281
H           4.23148379      6.14270835      5.32187959
O           4.15524655      3.58668159      2.42582304
H           3.69438720      2.61353109      2.42391137
O           3.48898435      3.79431949      4.55870095
C          -2.31203937     -4.56157387      4.18035793
H          -2.25143842     -5.52591037      3.66393568
H          -1.41218994     -3.98203300      3.89838876
H          -2.23813019     -4.75500069      5.25856113
C          -3.58311997     -3.79239792      3.86920846
H          -3.60766056     -2.77962542      4.35912714
C          -3.74419392     -3.67256582      2.34678874
O          -4.74464524     -4.42817138      4.38323679
H          -4.84348141     -5.33910633      4.01999035
O          -3.20565290     -2.48138084      1.91464279
H          -3.27088990     -2.35043198      0.92499594
O          -4.24460125     -4.43583726      1.55942017
          89
 Energy =     -0.99627396 a.u.  #Cluster:    6
C          -2.49435117      2.54022376      0.03235068
C          -1.12582524      2.24143918      0.08807907
C          -0.68815938      0.92766876      0.27556739
C          -1.62102222     -0.11088754      0.43848639
C          -2.97716953      0.17073472      0.36221367
C          -3.42125003      1.50677697      0.15894159
H          -2.84369909      3.55951139     -0.11893996
H          -0.40544194      3.05048490     -0.02884141
H          -1.26865203     -1.13324028      0.62440867
O          -4.75567869      1.82582586      0.08941728
H          -5.30671075      0.99329994      0.13292430
O          -4.00300422     -0.74772881      0.48789032
C          -3.63631585     -2.13867649      0.27134990
H          -4.61443977     -2.62659031      0.20973423
H          -3.06911546     -2.25061739     -0.66209071
H          -3.05859323     -2.49927309      1.12907629
C           0.78925837      0.59671696      0.35742230
H           1.17768473      0.93081222      1.35938612
C           1.60974839      1.28804136     -0.75546761
H           1.39802930      2.38200504     -0.79976208
C           1.51250706      0.65346857     -2.15343281
H           2.25106948      1.10957706     -2.83892285
H           1.65076696     -0.44283941     -2.11868522
O           0.98696263     -0.79860292      0.32212280
H           0.39504036     -1.45018843     -0.70203980
O           0.25705765      0.98304958     -2.74014858
H          -0.45798479      0.41999342     -2.34551082
O           3.03854466      1.10905652     -0.44928483
C           3.48880703      1.70911708      0.71304321
C           3.48112978      3.12085077      0.89546984
C           4.04103309      0.87963998      1.68651192
C           4.06265705      3.67470928      2.03778306
C           4.63218166      1.44372112      2.82402125
H           3.98908023     -0.21453961      1.55948504
C           4.64412974      2.82769455      2.99214548
H           4.07708859      4.74963414      2.19300534
H           5.07098386      0.78906490      3.57799002
H           5.10694899      3.26381992      3.87760137
O           2.87372224      3.81630096     -0.12270528
C           2.61502372      5.22712129      0.08637640
H           3.55464797      5.77875995      0.16975443
H           2.08645562      5.49032518     -0.84080036
H           1.97603552      5.37313539      0.96242883
C           6.12711514     -4.02794419     -0.64292996
H           6.48346521     -3.74191591      0.37673698
H           5.57273833     -4.98069257     -0.55925577
C           5.24988455     -2.95166602     -1.28330798
H           5.05457782     -3.18606919     -2.35010932
H           4.23567594     -2.94600428     -0.75479184
C           4.77641627     -0.58289395     -1.72230812
H           5.07271815      0.47460923     -1.60105842
H           4.55493700     -0.76677139     -2.78228826
H           3.81592783     -0.67708420     -1.14515350
C           7.08815197     -1.40970121     -1.97656885
H           7.55654263     -0.42207665     -1.83877779
H           7.82673060     -2.18444778     -1.66744566
H           6.90722384     -1.55588207     -3.05321175
C           6.08742971     -1.18518600      0.26742472
H           6.42998336     -0.14755922      0.38506181
H           5.14543314     -1.31202362      0.88122931
H           6.82393249     -1.86424321      0.73305996
N           5.81421566     -1.53629807     -1.17368331
O           7.33809927     -4.21887465     -1.38210246
H           7.19448153     -4.80734712     -2.14968043
Cl         -0.22498850     -2.33700940     -1.63505489
C           2.26755840     -4.22196930      0.57016147
H           3.01453463     -4.56788240     -0.14738405
H           1.94883809     -5.07157214      1.18774332
H           1.38276577     -3.90901696     -0.01724951
C           2.75515684     -3.06260825      1.42341565
H           1.94942684     -2.69604638      2.12823709
C           3.98813966     -3.47028437      2.23300857
O           3.20101641     -1.99237477      0.59989403
H           2.35933367     -1.31428436      0.41492357
O           3.62689159     -4.25322617      3.29415717
H           4.39220513     -4.48915939      3.88248497
O           5.16437984     -3.22223741      2.05064010
C          -0.46374197     -1.81867593      4.69192234
H           0.23682433     -2.62556877      4.95549656
H          -0.57486763     -1.15819538      5.55689938
H          -1.43207595     -2.30321628      4.49839477
C          -0.00208154     -1.07509584      3.45009768
H          -0.68911535     -0.24068051      3.16252078
C           1.41980709     -0.51399600      3.68374579
O           0.06889998     -2.02345310      2.40597379
H           0.29189362     -1.54365476      1.48993524
O           1.38613495      0.85660364      3.54231377
H           2.27486855      1.28940106      3.66256284
O           2.46749195     -1.05727913      3.93644598
          89
 Energy =     -0.99455618 a.u.  #Cluster:    7
C          -4.38404491      1.02863758     -1.25214502
C          -3.11864970      0.65370953     -0.80195749
C          -2.94931740      0.04644789      0.45493724
C          -4.05387295     -0.21515907      1.27480265
C          -5.32361765      0.13973233      0.82107465
C          -5.48374947      0.77355927     -0.42855633
H          -4.51613572      1.48815327     -2.23163095
H          -2.25288974      0.81190530     -1.45777097
H          -3.91608037     -0.70226131      2.24419806
O          -6.73788356      1.11678386     -0.90959899
H          -7.47197999      0.83155456     -0.22416055
O          -6.50278804     -0.18158414      1.47181556
C          -6.63852131      0.37870979      2.81092250
H          -7.65380597      0.05409297      3.08221979
H          -5.88604072     -0.05342932      3.47290199
H          -6.55326120      1.47234534      2.76145017
C          -1.56216689     -0.28797898      0.94303871
H          -1.06036918      0.64546564      1.31899286
C          -0.67918443     -0.94822705     -0.13880466
H          -0.67719814     -0.35077051     -1.07867383
C          -0.99142816     -2.43539100     -0.42434232
H          -0.17335763     -2.87501769     -1.02627195
H          -1.11039935     -3.00333786      0.51691988
O          -1.70963533     -1.15682687      2.08602807
H          -0.81824605     -1.49429880      2.33501907
O          -2.20811918     -2.55531883     -1.10865312
H          -2.21972432     -1.93900355     -2.12077738
O           0.66861063     -1.01985092      0.42600946
C           1.56279516      0.00423482      0.19929789
C           1.26901742      1.35932865     -0.10293571
C           2.89582648     -0.39535815      0.37254582
C           2.30842888      2.28383363     -0.23875879
C           3.92456349      0.54156576      0.24767747
H           3.10675992     -1.43935366      0.60265718
C           3.63312148      1.87228250     -0.05993051
H           2.09053592      3.32405361     -0.47067310
H           4.95749608      0.22664419      0.38781314
H           4.43851023      2.59793037     -0.15950042
O          -0.07351886      1.68854125     -0.17803269
C          -0.43320598      2.88796087     -0.90938858
H          -0.25205945      2.72759099     -1.97617126
H          -1.50994159      2.97335741     -0.68481027
H           0.10615765      3.75946330     -0.53208863
C          -5.84229289     -1.58830182     -2.81237665
H          -5.20244267     -0.79650618     -3.26515536
H          -6.07436735     -2.33833833     -3.58938924
C          -5.20819170     -2.15954579     -1.54609024
H          -4.16530723     -1.72178350     -1.40403185
H          -5.79219815     -1.83198730     -0.64909351
C          -4.47968244     -4.04140759     -0.16283033
H          -4.29754896     -5.11918804     -0.07013771
H          -3.48018868     -3.52059386     -0.04120901
H          -5.11727895     -3.70883645      0.67060813
C          -4.13812461     -4.14567652     -2.60022049
H          -4.08059757     -5.23886738     -2.65764778
H          -4.40994197     -3.73893581     -3.58925482
H          -3.09276413     -3.75730207     -2.40826360
C          -6.42068819     -4.33533706     -1.66017605
H          -6.35490068     -5.42815978     -1.54847300
H          -7.13827517     -3.95921593     -0.89763208
H          -6.86920477     -4.12202027     -2.64645676
N          -5.06967981     -3.67552409     -1.50882848
O          -7.13383817     -1.01583011     -2.49680537
H          -7.01742457     -0.06218067     -2.13628418
Cl         -2.61602980     -1.22220536     -3.46250283
C          -5.12920850      5.77783820     -0.02646526
H          -5.73259102      6.06147509      0.84936934
H          -4.10624732      6.14081643      0.12138018
H          -5.56834835      6.31133421     -0.88213011
C          -5.17596447      4.27644319     -0.26202606
H          -4.60663428      3.96286038     -1.17049923
C          -4.60661570      3.54991165      0.97165647
O          -6.55096106      3.95678901     -0.41662921
H          -6.67380267      3.00299880     -0.68967888
O          -3.24810646      3.38725541      0.78104596
H          -2.80551024      2.88560416      1.51746669
O          -5.11979600      3.14237127      1.98120035
C         -10.80452132     -2.60824600      1.17787296
H         -11.45356051     -1.79232523      0.83258003
H         -10.72830017     -3.33615208      0.35988192
H         -11.32543804     -3.09842615      2.01310047
C          -9.43692950     -2.11747857      1.62326801
H          -8.77789477     -2.94091781      1.99137720
C          -8.75968360     -1.34621061      0.47909116
O          -9.52414802     -1.25052284      2.74642802
H         -10.02743601     -0.42794841      2.51772070
O          -8.17654802     -2.16037677     -0.41605037
H          -7.78846542     -1.65327553     -1.29560488
O          -8.78160980     -0.13347283      0.35883582
          89
 Energy =     -0.99351183 a.u.  #Cluster:    8
C          -3.78772794      2.56994446      0.15393495
C          -2.46663830      2.12263809      0.23248676
C          -2.13147319      1.01313314      1.02207561
C          -3.12161510      0.30257375      1.71886273
C          -4.43896678      0.73873576      1.63532809
C          -4.77588582      1.87880704      0.86020495
H          -4.06085270      3.42193263     -0.46733609
H          -1.69551830      2.63998151     -0.34656577
H          -2.84755970     -0.56934094      2.31513958
O          -6.06509022      2.33807325      0.78925767
H          -6.66715757      1.73188440      1.31415130
O          -5.51890673      0.18906985      2.31807663
C          -5.58024676     -1.26044021      2.30765052
H          -6.57156632     -1.45322265      2.73375454
H          -5.50510366     -1.63972030      1.28440020
H          -4.79138816     -1.66732885      2.94696670
C          -0.68319278      0.62295371      1.14739192
H          -0.07086898      1.50316142      1.49828701
C          -0.08696475      0.05131589     -0.15679015
H           0.10504896      0.86198247     -0.89799167
C          -0.87620364     -1.10813753     -0.78083132
H          -0.41352487     -2.08274130     -0.52759420
H          -1.93485489     -1.10465295     -0.45612499
O          -0.57408512     -0.36791804      2.20327534
H           0.26639337     -0.88319606      2.05669322
O          -0.82404064     -0.97392535     -2.19683231
H          -1.39984529      0.18755594     -2.55915546
O           1.16934416     -0.59357450      0.25355885
C           2.36484988      0.07349722      0.07798231
C           2.55150614      1.48357550      0.08714056
C           3.46279277     -0.77520612     -0.09339124
C           3.83161939      2.01506871     -0.08057297
C           4.74260628     -0.22928935     -0.25075231
H           3.30903066     -1.85430614     -0.08355268
C           4.92351603      1.15309432     -0.24704147
H           3.98785962      3.09155810     -0.07863344
H           5.59720955     -0.89355924     -0.37052490
H           5.92151269      1.57343027     -0.36764968
O           1.40176536      2.22384702      0.22997692
C           1.53283341      3.60790806      0.65137222
H           1.84235106      4.21690434     -0.19971247
H           0.50034129      3.83595113      0.97129844
H           2.21265931      3.69511641      1.50279118
C           1.67178403     -0.38198267     -3.10356600
H           0.82360653      0.32338328     -2.97039302
H           1.75674721     -0.98976091     -2.18151193
C           1.53619855     -1.28763120     -4.32416016
H           2.55559048     -1.60078775     -4.64537828
H           0.97766533     -2.22972236     -4.03202563
C           1.28133288     -1.32104914     -6.77594158
H           0.72663914     -0.96374011     -7.65945238
H           2.35476621     -1.13854366     -6.95074063
H           1.12778934     -2.41776456     -6.71219153
C           1.08954774      0.83864584     -5.58973569
H           0.82177272      1.25740146     -6.56895820
H           0.50948018      1.39931364     -4.81873872
H           2.15704375      1.05581498     -5.37584619
C          -0.68457811     -0.86276293     -5.38510810
H          -1.25621165     -0.27126159     -6.11438949
H          -0.94220358     -1.93739526     -5.50478802
H          -1.04851318     -0.58219031     -4.36974192
N           0.80463364     -0.64355485     -5.50566712
O           2.84902556      0.42015089     -3.31805799
H           3.43857027      0.38761263     -2.53403552
Cl         -1.60559219      1.52747002     -3.05069639
C          -1.43223963     -6.11339204     -2.57071260
H          -0.33840693     -6.13068340     -2.49452966
H          -1.82817000     -5.70681372     -1.63065538
H          -1.76270183     -7.15799241     -2.65513291
C          -1.91649136     -5.30873716     -3.76849932
H          -3.02912271     -5.27504846     -3.83758862
C          -1.30986879     -3.89560674     -3.72226725
O          -1.52330368     -5.92540489     -4.99313291
H          -0.57917274     -5.70725916     -5.19477830
O          -1.93877661     -3.06360411     -2.94384967
H          -1.42503755     -2.04637157     -2.72087957
O          -0.31621870     -3.60778423     -4.39814687
C          -1.52757152      2.52283071      6.01152108
H          -0.59164287      3.08584976      6.13724458
H          -2.37276721      3.20150929      6.17670305
H          -1.53547006      1.75873212      6.80191445
C          -1.59253022      1.86162721      4.64333093
H          -2.50817016      1.23375669      4.51116373
C          -1.57301518      2.93895937      3.54229372
O          -0.43325419      1.05457425      4.54390797
H          -0.44856775      0.50366895      3.69351747
O          -2.84039600      3.45683498      3.42076025
H          -2.93072261      4.11207081      2.67911658
O          -0.68932936      3.34625030      2.82617446
          89
 Energy =     -0.99267172 a.u.  #Cluster:    9
C           0.09571423      2.72264888      1.53563185
C           0.97872707      1.73179544      1.96240912
C           1.01332990      0.48482582      1.33431049
C           0.04758700      0.16438470      0.35290163
C          -0.81324617      1.14619541     -0.08770025
C          -0.74404871      2.49849814      0.41937896
H           0.07589413      3.70095344      2.00516699
H           1.67432306      1.95024636      2.77300948
H           0.00037263     -0.84786034     -0.05862078
O          -1.39803161      3.46235729     -0.15010143
H          -1.34375178      3.31869836     -1.47479457
O          -1.68260800      0.80727832     -1.12017639
C          -3.08190782      1.09878709     -0.83869882
H          -3.57308095      0.81978875     -1.77374818
H          -3.40958724      0.48611171      0.00951569
H          -3.20581772      2.16905920     -0.63140590
C           2.14450752     -0.47916603      1.55317667
H           2.89985453     -0.11440067      2.28680949
C           2.80788144     -0.74648853      0.17231731
H           2.37873263     -0.05051281     -0.60377325
C           2.71480088     -2.19266492     -0.33075914
H           3.62572513     -2.49611510     -0.87536397
H           2.50128248     -2.91437066      0.48325082
O           1.69237133     -1.74595389      2.06573783
H           0.83525041     -1.63202953      2.54703612
O           1.65989225     -2.23207471     -1.30914733
H           0.77029319     -2.30754153     -0.83027686
O           4.24591758     -0.48416276      0.18694428
C           4.62599302      0.76301606      0.66221635
C           4.12727413      2.00091760      0.17778040
C           5.62706038      0.74396400      1.63830689
C           4.61503071      3.19929073      0.70851817
C           6.12359870      1.94871820      2.14511559
H           5.99938732     -0.21763865      1.99391276
C           5.61232426      3.16528490      1.68889851
H           4.22898064      4.15674076      0.36446266
H           6.90198157      1.93288443      2.90630962
H           5.99081844      4.10165306      2.09905784
O           3.19024434      1.93101435     -0.83653224
C           2.34943903      3.10314794     -1.03797838
H           2.93294074      3.91186693     -1.47966778
H           1.58442893      2.72323415     -1.73942582
H           1.86909846      3.40233633     -0.09767448
C          -0.05564588     -0.00624087     -3.51673910
H          -0.14439329     -1.09015764     -3.70936122
H          -0.85069977      0.31915898     -2.79597216
C           1.31152940      0.38958227     -2.94790184
H           1.33229579      1.49947735     -2.75807132
H           1.43923497     -0.09060815     -1.93090094
C           3.78666662      0.26927563     -3.07353243
H           4.67419070      0.09495886     -3.69761639
H           3.83101512      1.31481530     -2.69570731
H           3.88411360     -0.36863995     -2.16744709
C           2.49894195      0.82110097     -5.09129547
H           3.29103149      0.51288209     -5.78667841
H           1.51260398      0.72459596     -5.61389524
H           2.62024082      1.89666971     -4.87218680
C           2.43855591     -1.47150188     -4.16337138
H           3.36375474     -1.82365038     -4.64099321
H           2.27762981     -2.08136695     -3.23932773
H           1.59705040     -1.69005079     -4.84532134
N           2.50087065     -0.00022275     -3.82203513
O          -0.29357663      0.59571438     -4.78990179
H          -0.70466425      1.49433657     -4.66683681
Cl         -0.83554508      3.16892841     -2.84473900
C          -2.27415992     -2.25310123     -1.63171589
H          -1.86587233     -2.94815148     -2.37184119
H          -3.34874801     -2.13709192     -1.83148204
H          -1.82387104     -1.25564640     -1.80951414
C          -2.00853260     -2.69015149     -0.20521558
H          -2.12006623     -1.84342721      0.53476357
C          -2.90031405     -3.87905864      0.16450551
O          -0.65142674     -3.11214980     -0.02980270
H          -0.52193613     -4.04015168     -0.35651610
O          -4.11630036     -3.46626973      0.63377255
H          -4.71084074     -4.22792404      0.88401193
O          -2.63039603     -5.05397427      0.07361803
C          -2.79521368      0.93654098      3.68076689
H          -3.67562308      0.63741034      4.26195281
H          -2.06759796      1.38378627      4.37278215
H          -3.11209847      1.74275168      2.99692960
C          -2.18423881     -0.20030873      2.88734564
H          -1.26429425      0.12519775      2.32745933
C          -1.88035870     -1.39515638      3.80210139
O          -3.04291504     -0.66554619      1.85262211
H          -3.88540879     -1.03956736      2.20977139
O          -0.52547066     -1.49027676      4.01881506
H          -0.27744178     -2.24350456      4.62332000
O          -2.63392157     -2.19321600      4.30072608
          89
 Energy =     -0.99159080 a.u.  #Cluster:   10
C          -3.88263458      1.82050797     -0.75639065
C          -2.82601787      1.14319262     -0.15322476
C          -3.04466063     -0.07119630      0.51248501
C          -4.33786993     -0.60060435      0.60054038
C          -5.40375819      0.07604698      0.00904706
C          -5.17880516      1.28574977     -0.69623166
H          -3.72893882      2.75948838     -1.28787893
H          -1.81656755      1.55649012     -0.21464634
H          -4.48855813     -1.54397471      1.14360109
O          -6.13362045      2.02182065     -1.33760371
H          -6.99130480      1.50336218     -1.49463751
O          -6.73413231     -0.33416488      0.10854619
C          -6.95587199     -1.74906077      0.35841508
H          -8.02905845     -1.85843106      0.14299919
H          -6.36481575     -2.36299412     -0.33952707
H          -6.73405202     -1.97145931      1.40740655
C          -1.86448316     -0.80143073      1.11323470
H          -1.29327367     -0.14412875      1.81794663
C          -0.90820964     -1.29069361     -0.00737631
H          -0.73477867     -0.48739120     -0.75846372
C          -1.34231507     -2.59330084     -0.68895143
H          -0.50088560     -3.07111126     -1.22205376
H          -1.79787231     -3.31774239      0.01877212
O          -2.38391928     -1.90461641      1.86591867
H          -1.62963002     -2.50877047      2.13884627
O          -2.29270045     -2.25601416     -1.73316796
H          -3.19784180     -2.04923192     -1.32179293
O           0.32835371     -1.64751206      0.67936641
C           1.47040452     -0.96105458      0.30700506
C           1.57314243      0.45530977      0.26138200
C           2.59489059     -1.75487151      0.07288454
C           2.79860873      1.05498847     -0.03339393
C           3.82325247     -1.14338248     -0.20625795
H           2.49906167     -2.84109128      0.12754431
C           3.92012977      0.24655533     -0.26489445
H           2.89807792      2.13519820     -0.08112261
H           4.70274332     -1.76149074     -0.38063781
H           4.87632530      0.71718666     -0.49147541
O           0.38943816      1.12837822      0.50088609
C           0.46989654      2.56325390      0.68861590
H           0.75682267      3.04989620     -0.24745869
H          -0.56453579      2.81009614      0.96726605
H           1.16034555      2.80503422      1.50195493
C          -4.37205733     -3.20001259      4.01714815
H          -3.79821803     -2.24746937      4.04402641
H          -5.35740381     -3.05250656      4.49220203
C          -4.42228060     -3.70501924      2.59374587
H          -4.55081445     -2.87776809      1.86544952
H          -3.25327488     -4.09060310      2.31080570
C          -5.20686041     -5.21276377      0.84060042
H          -5.83500565     -6.07037072      0.55582080
H          -5.49970682     -4.36576398      0.18878843
H          -4.14992598     -5.45986820      0.59268599
C          -6.77146857     -4.52243480      2.61977325
H          -7.46074745     -5.31304609      2.28454323
H          -6.91754984     -4.38231142      3.70547168
H          -7.06866585     -3.58010678      2.12264677
C          -4.92342807     -6.07145382      3.12750139
H          -5.60787160     -6.91589616      2.99045732
H          -3.89404674     -6.39863563      2.85171228
H          -4.85753504     -5.81182792      4.20802237
N          -5.32862224     -4.86487718      2.30874374
O          -3.73186972     -4.14335931      4.89095839
H          -2.82877557     -4.36623293      4.53970662
Cl         -1.83764666     -4.91675178      2.02404180
C          -6.20873071     -4.74010398     -4.12199495
H          -6.64235040     -3.73693595     -4.21232613
H          -5.41207156     -4.81401088     -4.87877900
H          -6.98653111     -5.46428079     -4.40034608
C          -5.67395188     -5.03593902     -2.73200301
H          -5.21156861     -6.05485766     -2.66564346
C          -4.64266269     -3.97072658     -2.32708617
O          -6.68886602     -5.08195657     -1.74013405
H          -7.30669294     -4.30070519     -1.81252905
O          -3.43827724     -4.21552643     -2.83304355
H          -2.69891515     -3.46423173     -2.49689823
O          -4.84320970     -2.99635053     -1.60498510
C          -6.15788311     -0.56482314     -3.37923057
H          -5.68887778     -1.17245413     -2.58416366
H          -5.83327903     -0.97780336     -4.34191180
H          -5.71163381      0.44229626     -3.29707464
C          -7.66797984     -0.49024359     -3.26147452
H          -8.15528674      0.03012878     -4.12471811
C          -8.21599137     -1.91941691     -3.09383329
O          -8.10152825      0.25822592     -2.13836830
H          -7.74018110     -0.13367448     -1.27110827
O          -8.70228090     -2.39407352     -4.27774498
H          -9.11358534     -3.29857992     -4.20951565
O          -8.24962748     -2.60766213     -2.09613743
          89
 Energy =     -0.99035290 a.u.  #Cluster:   11
C          -2.46582678      3.77191321      2.44989828
C          -1.43977813      2.81872222      2.53791435
C          -1.49121585      1.64619687      1.77719889
C          -2.57895931      1.38909171      0.92393217
C          -3.60511812      2.32441913      0.83987462
C          -3.54351657      3.52089284      1.60693703
H          -2.44194110      4.68761116      3.03684474
H          -0.61618705      2.99267871      3.22632632
H          -2.59772571      0.46682848      0.33584564
O          -4.54901164      4.47135445      1.52749408
H          -5.34933102      4.07462180      1.06566297
O          -4.75075931      2.24648872      0.07986552
C          -4.93937056      1.04749036     -0.71808281
H          -5.89045875      1.26388462     -1.21847166
H          -4.11990704      0.94857305     -1.44521238
H          -5.01331640      0.17380093     -0.06585940
C          -0.39117573      0.61562609      1.90220360
H           0.35941688      0.89317228      2.68309503
C           0.35460025      0.35293965      0.56161334
H           0.42080445      1.26325877     -0.08634957
C          -0.22259671     -0.84951750     -0.20130179
H           0.18863849     -1.80634785      0.17594869
H          -1.33144168     -0.85222104     -0.10735984
O          -1.07307051     -0.56496369      2.35874284
H          -0.45503781     -1.33582843      2.39683786
O           0.14056734     -0.83990220     -1.57591440
H          -0.40427507     -0.15685205     -2.06682064
O           1.68144973     -0.02240574      1.06838233
C           2.85896611      0.40743798      0.51989145
C           3.09499735      1.28453575     -0.55440527
C           3.96571054     -0.12422533      1.22554943
C           4.41049592      1.60554580     -0.93319261
C           5.25859876      0.20508118      0.84567956
H           3.78127462     -0.81588881      2.05582818
C           5.48778750      1.07378537     -0.23479669
H           4.56756702      2.27154550     -1.77979419
H           6.10468200     -0.21809980      1.38854883
H           6.50651463      1.32146826     -0.52518513
O           2.05106587      1.92430058     -1.21943738
C           1.80573863      1.41020190     -2.56396152
H           1.63228585      0.32444758     -2.51581064
H           0.88273595      1.93599751     -2.85148340
H           2.64477190      1.65736034     -3.21256821
C           1.22269199      5.52108244     -2.49312957
H           1.69307352      5.18916076     -3.43365773
H           0.12621201      5.24436847     -2.52855669
C           1.95460423      4.93315172     -1.27638837
H           2.34758872      3.90973833     -1.53402696
H           2.82867591      5.56514459     -1.01748933
C           1.86389232      4.22520331      1.09516505
H           1.22560393      4.06746230      1.98389110
H           2.29352695      3.23880555      0.82554045
H           2.69401960      4.88718221      1.38110017
C          -0.06811222      3.83888163     -0.36686055
H          -0.87525424      3.86752916      0.38476122
H          -0.58267816      4.12260717     -1.32804474
H           0.28482676      2.78904432     -0.48016582
C           0.49543365      6.13620556      0.35546113
H          -0.32086974      6.02620995      1.09444161
H           1.26847753      6.80772229      0.74480486
H           0.01007405      6.64298300     -0.51805088
N           1.05106126      4.79196292     -0.05173476
O           1.19904356      6.94641019     -2.41536035
H           2.05051697      7.33046733     -2.69867377
Cl         -1.65255289      1.71569866     -1.96136618
C          -4.05329470      4.03188079     -3.06694239
H          -4.06513800      3.16978957     -2.37817386
H          -5.01697690      4.54290109     -2.95746240
H          -3.97702775      3.62446241     -4.08212194
C          -2.88302308      4.95659792     -2.76941404
H          -2.85914564      5.85371302     -3.43580623
C          -2.94825104      5.45428570     -1.30567045
O          -1.64583129      4.32656399     -2.94404150
H          -1.69714269      3.23569272     -2.64234291
O          -4.22445858      5.53858405     -0.83380094
H          -4.25457255      5.67625155      0.17422528
O          -2.03008128      5.76981503     -0.57345317
C           2.39644922     -3.85404468      0.07025061
H           2.62971439     -4.91711614      0.20327340
H           1.49964870     -3.78399458     -0.56497298
H           3.22122403     -3.40752164     -0.50754270
C           2.21587863     -3.11145253      1.38006741
H           1.92026271     -2.03220328      1.22176079
C           1.18351121     -3.83493466      2.25499378
O           3.41887801     -3.00630312      2.12594293
H           3.80697455     -3.89442587      2.31125850
O          -0.04960665     -3.23490194      2.10209833
H          -0.77282420     -3.67979257      2.62428804
O           1.31037879     -4.78140711      2.98769271
          89
 Energy =     -0.98842603 a.u.  #Cluster:   12
C          -3.29858144      2.51475536     -0.24478138
C          -2.05283078      2.11372026      0.25538867
C          -1.91453692      0.89461002      0.91906037
C          -3.03927261      0.07799298      1.15566401
C          -4.27518664      0.46615440      0.66210681
C          -4.41071324      1.68813043     -0.07300054
H          -3.41671068      3.46066233     -0.77213950
H          -1.18981506      2.75965907      0.10136704
H          -2.93740395     -0.85842616      1.71173915
O          -5.58134242      2.08683890     -0.62267013
H          -6.26385228      1.30193746     -0.65560736
O          -5.44241274     -0.26167384      0.75138333
C          -5.54142040     -1.23845463      1.82575454
H          -6.39352817     -1.85546555      1.50448538
H          -4.63521117     -1.86455495      1.89349386
H          -5.74038587     -0.71195990      2.76094597
C          -0.53823645      0.41444454      1.30890898
H           0.12651783      1.25247777      1.63847030
C           0.12904747     -0.34180145      0.13303381
H           0.57371506      0.39852279     -0.57708840
C          -0.76862972     -1.31678359     -0.65699913
H          -0.15851803     -2.10754297     -1.13759661
H          -1.56066605     -1.77393949     -0.03519613
O          -0.59436094     -0.51381704      2.41425936
H          -1.09587621     -0.10299592      3.15640429
O          -1.33697288     -0.61935313     -1.76297859
H          -2.06606437     -0.02752780     -1.45738451
O           1.16218377     -1.21129715      0.68877735
C           2.48026325     -0.79715182      0.65895167
C           2.95523753      0.54177765      0.62571533
C           3.39130345     -1.85715108      0.73029526
C           4.32797890      0.79354636      0.66402974
C           4.76427851     -1.59132419      0.77712982
H           3.02228644     -2.87940644      0.74037665
C           5.22802839     -0.27668950      0.74208446
H           4.70939629      1.81211104      0.63980941
H           5.46977656     -2.41954724      0.83398393
H           6.29866389     -0.07365850      0.77293193
O           1.97586851      1.51589690      0.56494223
C           2.39824864      2.88641868      0.35462399
H           2.94682822      2.97612188     -0.58769231
H           1.43246801      3.40773839      0.30133283
H           2.98729657      3.23677602      1.20720574
C          -2.55569788     -3.95980486      1.49126763
H          -2.62609774     -3.60751757      0.44005806
H          -2.43011861     -5.06026953      1.49078225
C          -1.45872103     -3.23441894      2.29319116
H          -1.26071956     -2.22450521      1.83910087
H          -1.86998372     -3.02100728      3.31463035
C           0.82480289     -3.09095263      3.17753560
H           1.83344289     -3.52233221      3.23034982
H           0.90388909     -2.09047430      2.67200080
H           0.47624137     -2.89528954      4.20577352
C           0.42764348     -4.28726066      1.06255177
H           1.35457476     -4.87722168      1.12676825
H          -0.28853250     -4.85517012      0.43972219
H           0.66451580     -3.34408066      0.52056750
C          -0.34124046     -5.26805623      3.19759825
H           0.57672487     -5.86716235      3.25480308
H          -0.69514319     -5.06927634      4.23282909
H          -1.14862491     -5.88759246      2.74886279
N          -0.14368677     -3.98310758      2.42916782
O          -3.76160707     -3.61988126      2.13879669
H          -3.81732952     -4.34709519      3.24448750
Cl         -3.35720677     -5.15543158      4.36904143
C          -5.27559499     -1.15834394     -2.51202211
H          -5.33670029     -2.25724611     -2.64937853
H          -4.62610414     -0.79248862     -3.31781431
H          -4.74301057     -0.99671629     -1.56255140
C          -6.62609983     -0.47091870     -2.51286243
H          -6.62988420      0.49432756     -3.07933155
C          -7.71595459     -1.41076225     -3.04998086
O          -7.04896412     -0.07980759     -1.20059176
H          -6.84811940     -0.79786210     -0.53457996
O          -7.94270553     -1.12241425     -4.37269349
H          -8.61532484     -1.72421907     -4.79026060
O          -8.34286499     -2.27581680     -2.49095807
C          -6.89291293     -6.00316376     -1.62200792
H          -6.09983118     -6.75377808     -1.71578228
H          -7.42290324     -6.18960915     -0.67736563
H          -7.60302999     -6.17541249     -2.44295645
C          -6.36103938     -4.58143596     -1.67884604
H          -7.17647417     -3.81930983     -1.56799208
C          -5.24057309     -4.38629795     -0.64638655
O          -5.80223968     -4.28157861     -2.96248630
H          -4.93624596     -4.74835673     -3.07302837
O          -5.66717904     -4.01700823      0.54467511
H          -4.83109650     -3.93122039      1.31661345
O          -4.05603069     -4.54121436     -0.92613533
          89
 Energy =     -0.98733184 a.u.  #Cluster:   13
C          -3.58436888      2.91660580     -0.91256180
C          -2.44295043      2.30264230     -0.38953456
C          -2.55472573      1.26982465      0.55131141
C          -3.81485810      0.82894790      0.98340207
C          -4.95069642      1.46573818      0.49800287
C          -4.84233908      2.50017186     -0.46595969
H          -3.51509649      3.71196029     -1.65272423
H          -1.45902820      2.63520338     -0.72273568
H          -3.88387102      0.01299168      1.71490550
O          -5.94866131      3.12927596     -0.97226750
H          -6.77817222      2.72025428     -0.58582188
O          -6.25127388      1.25620747      0.95162013
C          -6.59933798     -0.12477608      1.25186882
H          -7.67972802     -0.05838230      1.42104772
H          -6.36346064     -0.77075311      0.40366293
H          -6.07219918     -0.44125003      2.16635880
C          -1.30744614      0.64808555      1.12344339
H          -0.59004743      1.42976212      1.48526908
C          -0.59030586     -0.29718373      0.12904133
H           0.02236187      0.26457176     -0.61362706
C          -1.50637920     -1.31037318     -0.57309115
H          -1.90299399     -2.05739788      0.14071590
H          -2.34775129     -0.78429049     -1.06804868
O          -1.69983883     -0.11609368      2.28799451
H          -1.01631881     -0.82450130      2.44750413
O          -0.79915264     -2.03168367     -1.55572577
H           0.15324467     -1.45017289     -1.96909350
O           0.26510255     -1.12692854      0.98491866
C           1.58832901     -0.77944459      1.17190012
C           2.22145839      0.43962690      0.83011930
C           2.32230363     -1.79439982      1.80554501
C           3.59146474      0.60101678      1.06176228
C           3.68643731     -1.61427082      2.04223714
H           1.81429630     -2.70683427      2.10732072
C           4.32143378     -0.42910911      1.66082266
H           4.08076311      1.53245109      0.78183031
H           4.25555160     -2.40437445      2.52948607
H           5.38779582     -0.30069326      1.83783585
O           1.42766938      1.47353431      0.35506987
C           1.94227751      2.17774324     -0.80978099
H           2.16956600      1.46307581     -1.61298961
H           1.09638392      2.81992495     -1.07784326
H           2.81946101      2.76524757     -0.53239684
C          -1.27990786     -5.58405464     -2.93008040
H          -0.98106624     -5.11040025     -3.88869780
H          -1.07369722     -6.66903637     -2.95635751
C          -0.66145316     -4.88656255     -1.70860350
H          -1.11291778     -3.83808356     -1.62389465
H          -0.97581091     -5.40417539     -0.77818571
C           1.26350703     -3.85575746     -0.58362878
H           2.32629893     -3.56923476     -0.62993996
H           0.69255763     -2.87206803     -0.62075061
H           1.04622540     -4.31461837      0.38851238
C           1.30250934     -4.10576698     -3.03825427
H           2.28963583     -3.61455391     -2.94359747
H           1.33314654     -4.82154820     -3.86930103
H           0.60774889     -3.27852370     -3.34424691
C           1.51433046     -6.08833915     -1.59029804
H           2.61449190     -5.99239154     -1.58112726
H           1.21457020     -6.58060323     -0.64944413
H           1.24496451     -6.76516981     -2.41837911
N           0.85125003     -4.73497985     -1.74231545
O          -2.69498664     -5.51574003     -2.77942126
H          -3.01848803     -4.59846075     -3.00688156
Cl          1.53792710     -0.96878364     -2.52763321
C          -2.75323279      3.25439743      3.63660078
H          -2.51954408      2.90002188      2.62341484
H          -3.48978627      4.06330300      3.52716445
H          -1.83134680      3.67753508      4.05487306
C          -3.28353571      2.14095829      4.52753872
H          -3.51061686      2.49160550      5.56511612
C          -4.54890327      1.51821469      3.91165541
O          -2.32418956      1.12376067      4.72474966
H          -2.04411014      0.71271810      3.84567281
O          -5.37973298      2.49430982      3.42015550
H          -6.07747313      2.12514937      2.79300806
O          -4.85947466      0.35487725      3.80065309
C          -1.27075150     -0.78069278     -4.82765165
H          -1.42773941     -0.63118865     -5.90225424
H          -1.80874071      0.01806741     -4.29708042
H          -0.19630150     -0.61226652     -4.61400213
C          -1.68435367     -2.15070432     -4.34344277
H          -1.56008459     -2.26221966     -3.21293042
C          -3.12400952     -2.47002551     -4.77259176
O          -0.86940331     -3.19836618     -4.87582543
H          -0.67519023     -3.04537267     -5.83016677
O          -3.81440886     -2.98351001     -3.68780924
H          -4.76835396     -3.18027174     -3.89131591
O          -3.68155002     -2.36153185     -5.83354716
          89
 Energy =     -0.98469631 a.u.  #Cluster:   14
C          -3.50795684      2.36468901      0.52316526
C          -2.28789555      1.81831858      0.10351570
C          -2.06596544      0.44033098      0.17145887
C          -3.05551503     -0.42419781      0.67103304
C          -4.26628897      0.11109848      1.08819148
C          -4.49580555      1.51377100      1.01690010
H          -3.69614234      3.43546282      0.47747863
H          -1.51324113      2.48338945     -0.27524907
H          -2.84489860     -1.49657903      0.73077274
O          -5.68056250      2.07661598      1.42315202
H          -6.28738889      1.37411048      1.79192578
O          -5.35732704     -0.59052373      1.57108354
C          -5.11261801     -1.95735957      1.99131113
H          -6.08919235     -2.24716506      2.39748062
H          -4.84505539     -2.57099973      1.12401820
H          -4.33438064     -1.98425304      2.76082865
C          -0.73947138     -0.14259612     -0.27498669
H           0.09317068      0.26595725      0.35288808
C          -0.49139625      0.15989558     -1.77354625
H          -0.41489257      1.25794531     -1.96902377
C          -1.52260192     -0.50350743     -2.69167107
H          -1.19239720     -1.51993847     -3.00533101
H          -2.51914146     -0.57397481     -2.21981219
O          -0.70795024     -1.53685209      0.00774010
H           0.65819144     -2.38181356      0.16354682
O          -1.59196848      0.32400008     -3.87745308
H          -2.52087124      0.44698877     -4.15299032
O           0.76169688     -0.44223057     -2.22288914
C           1.90362083     -0.20712275     -1.48178216
C           2.29678557      1.06289006     -0.98209431
C           2.73596936     -1.31743965     -1.31997569
C           3.53303773      1.20553638     -0.34979473
C           3.97901746     -1.15973948     -0.69871740
H           2.37677291     -2.30666144     -1.64586357
C           4.37210560      0.08992576     -0.21854677
H           3.84951407      2.16505329      0.05030948
H           4.62243059     -2.02946106     -0.56433781
H           5.33508716      0.20523243      0.27899225
O           1.38153240      2.07851888     -1.18601659
C           1.53225544      3.27687561     -0.38517280
H           2.44296902      3.80998685     -0.66966555
H           0.63999391      3.84938530     -0.66993255
H           1.52282553      3.02829030      0.68023273
C           1.40150609     -0.85860114     -5.10869072
H           1.55527730     -0.07700720     -4.33168650
H           2.13430988     -0.71781381     -5.92422317
C           1.51675327     -2.24017412     -4.44869275
H           2.58207635     -2.43778487     -4.19480224
H           0.99328058     -2.24020561     -3.43026278
C           1.49945495     -4.69341781     -4.72614763
H           1.03295871     -5.57282268     -5.19138549
H           2.58957680     -4.76777832     -4.83848674
H           1.28437324     -4.78403623     -3.61429289
C           1.35729767     -3.27020614     -6.72573715
H           1.02581013     -4.14177366     -7.31116473
H           0.89794886     -2.36645948     -7.18216723
H           2.44991326     -3.17804428     -6.83450574
C          -0.55404111     -3.40133654     -5.17910828
H          -0.99461535     -4.27204465     -5.68390595
H          -0.89025624     -3.41631684     -4.11844827
H          -0.96990400     -2.47456790     -5.63092942
N           0.95644766     -3.39409066     -5.27090217
O           0.13472736     -0.67898477     -5.73880125
H          -0.51511971     -0.26831830     -5.07680719
Cl          1.39535081     -3.32334373      0.76932305
C          -0.88525824     -6.04881209     -0.30187984
H          -0.12531566     -5.66490668      0.39669083
H          -1.85477639     -5.65946977      0.03421131
H          -0.89422874     -7.14032182     -0.20797457
C          -0.59553166     -5.62532152     -1.73147094
H          -1.35387343     -5.99980371     -2.44922740
C          -0.42406001     -4.09107117     -1.82482536
O           0.63090010     -6.21062046     -2.20263341
H           1.38988053     -5.77321041     -1.72925247
O          -1.44290825     -3.35412653     -1.74072900
H          -1.10643524     -2.10855042     -0.77787853
O           0.73395137     -3.67720527     -2.06723793
C           7.80677902      4.45930422     -3.28945642
H           7.55226733      4.48573258     -4.35700028
H           6.99759123      4.96322243     -2.74418896
H           8.71571496      5.06656891     -3.16263759
C           8.04002381      3.04845206     -2.77508591
H           8.26200784      3.01941862     -1.67795498
C           6.82342650      2.16939968     -3.10985452
O           9.19284049      2.45071766     -3.34749920
H           9.11025704      2.38062640     -4.32916188
O           5.99633749      2.09891752     -2.02537601
H           5.18691503      1.52176696     -2.17272537
O           6.55916809      1.59832014     -4.13972091
          89
 Energy =     -0.98245916 a.u.  #Cluster:   15
C          -3.57330400      0.99869809     -1.42058851
C          -2.33705280      0.65711094     -0.87464194
C          -2.24979859     -0.27026504      0.17561392
C          -3.41250047     -0.84486686      0.70621866
C          -4.64870831     -0.52689562      0.14557767
C          -4.73794818      0.39619514     -0.92328723
H          -3.64637971      1.70461019     -2.24885319
H          -1.42515886      1.08739414     -1.30998414
H          -3.32634816     -1.55557168      1.53264808
O          -5.90047037      0.69153290     -1.58234868
H          -6.70688290      0.26133229     -1.14962059
O          -5.85306621     -1.14680796      0.47338704
C          -5.95034890     -1.71012749      1.80819236
H          -7.03135892     -1.89511636      1.90365534
H          -5.38150069     -2.64401244      1.85010890
H          -5.60660625     -0.99512639      2.56047826
C          -0.89657695     -0.68059498      0.71741592
H          -0.41213616      0.16823565      1.26553816
C           0.02311492     -1.16284171     -0.42801701
H           0.02104384     -0.41191770     -1.25932500
C          -0.27917169     -2.57191468     -0.96861415
H           0.66667982     -3.13023419     -1.11642346
H          -0.94285798     -3.13800207     -0.28769573
O          -1.15467741     -1.73534192      1.66445425
H          -0.32441199     -1.93821986      2.17122641
O          -0.95354166     -2.49110880     -2.20214291
H          -0.62570354     -1.56528569     -2.83450950
O           1.39948947     -1.27494527      0.08753176
C           2.31513781     -0.31959327     -0.35259810
C           2.07893269      1.07769549     -0.33652875
C           3.54838881     -0.82940851     -0.76049182
C           3.09444969      1.95530235     -0.72606448
C           4.56191352      0.05856167     -1.13908415
H           3.70265075     -1.90786920     -0.77747137
C           4.33289242      1.43569304     -1.12202607
H           2.93721943      3.02977765     -0.71937948
H           5.52842061     -0.33160383     -1.45266111
H           5.12501147      2.12095086     -1.42279285
O           0.81701067      1.44194684      0.08318186
C           0.45767808      2.84348825     -0.00861149
H           0.47910983      3.16564391     -1.05494227
H          -0.56717637      2.83682707      0.38516985
H           1.11639016      3.44614783      0.62254011
C          -4.04017966     -3.36556959     -1.48906664
H          -3.71331393     -4.38742210     -1.75602442
H          -3.56562504     -3.08889578     -0.52470125
C          -3.71009390     -2.31632117     -2.54865764
H          -4.39844626     -1.44814593     -2.46130005
H          -2.64794807     -1.91273521     -2.32952295
C          -3.51065263     -1.66643672     -4.91772504
H          -3.55183015     -1.96724356     -5.97285638
H          -4.23754277     -0.85544685     -4.74751769
H          -2.49774906     -1.20232631     -4.74873052
C          -5.08067362     -3.44962746     -4.29564802
H          -5.08324533     -3.94196530     -5.27842312
H          -5.37347173     -4.19491508     -3.52607506
H          -5.88130089     -2.68845118     -4.28200367
C          -2.63951799     -3.85153713     -4.17983226
H          -2.44548165     -4.05069404     -5.24210923
H          -1.67425748     -3.48064437     -3.72267469
H          -2.86689713     -4.80118794     -3.67274939
N          -3.73600210     -2.83054344     -3.98045729
O          -5.45692161     -3.48880725     -1.32330347
H          -5.80702167     -2.72434655     -0.78903711
Cl         -0.68612086     -0.24691127     -3.73918343
C          -8.70628156      2.08267665      0.58368925
H          -9.72328777      2.32484412      0.24320254
H          -8.56031785      2.58650764      1.54962505
H          -8.00437644      2.54799579     -0.12803183
C          -8.45626903      0.59242731      0.67925187
H          -7.44098906      0.34167880      1.09475894
C          -9.56365407     -0.09099557      1.49585156
O          -8.42360923     -0.03826989     -0.60196831
H          -9.19684489      0.22851299     -1.15714474
O          -8.98996041     -0.72428588      2.57259395
H          -9.65024555     -1.19205015      3.15254643
O         -10.75320660     -0.13425054      1.31514793
C           0.35856990     -0.58872989      5.53297983
H           0.51302229      0.49818179      5.51674642
H          -0.53741389     -0.80432636      4.93536741
H           0.13649203     -0.86566995      6.57321350
C           1.57254217     -1.35434330      5.02991497
H           1.42197689     -2.46265414      5.04340266
C           1.92964758     -0.86196413      3.61703518
O           2.70269841     -1.17601401      5.87143419
H           2.99685907     -0.23286909      5.87558420
O           1.44301854     -1.73080910      2.69005469
H           1.63313075     -1.45039414      1.70706225
O           2.53576288      0.13308390      3.30329292
          89
 Energy =     -0.98172211 a.u.  #Cluster:   16
C          -3.51436604      2.54870342     -0.52751040
C          -2.16892425      2.17605998     -0.42579086
C          -1.79624982      1.04090863      0.30047339
C          -2.76498006      0.24779761      0.94010591
C          -4.10148971      0.61272139      0.84292528
C          -4.48176047      1.76685623      0.10315320
H          -3.81768190      3.42926867     -1.09147222
H          -1.40993207      2.78004049     -0.93072863
H          -2.43978369     -0.62248678      1.51638805
O          -5.79356981      2.15266973     -0.01945015
H          -6.39053200      1.50513133      0.45078733
O          -5.18240213     -0.02924202      1.42260697
C          -4.94534640     -1.35661787      1.95368307
H          -5.94749561     -1.64569784      2.29368265
H          -4.58531490     -2.02231620      1.16368266
H          -4.24416648     -1.30560798      2.79306785
C          -0.33540172      0.65576192      0.38863558
H           0.28848990      1.49042155      0.80454186
C           0.17749177      0.25616912     -1.01910547
H          -0.14117791      0.99435072     -1.79037188
C          -0.22585673     -1.17281696     -1.40646556
H           0.53854876     -1.65822904     -2.05253313
H          -0.41877108     -1.81086529     -0.52139335
O          -0.24020837     -0.47465858      1.26423721
H           0.62523480     -0.43669200      1.75537978
O          -1.40549593     -1.11189277     -2.23171051
H          -2.16877138     -0.77894729     -1.70176029
O           1.63653895      0.19415137     -0.95375991
C           2.36969279      1.09457244     -1.68507160
C           2.09385347      2.47036922     -1.84125535
C           3.54776206      0.55362916     -2.23323406
C           2.98224690      3.28799384     -2.55260992
C           4.43347891      1.38102819     -2.91887888
H           3.75217616     -0.51039978     -2.10534669
C           4.15064835      2.74380057     -3.08696518
H           2.73911958      4.34069839     -2.68700039
H           5.34772964      0.95753451     -3.33593245
H           4.83566157      3.37389328     -3.64933215
O           0.90982620      3.02923467     -1.36472592
C           1.06177523      3.66007390     -0.06127084
H           1.89718613      4.35916092     -0.06025807
H           0.10608995      4.18447214      0.05907031
H           1.18383992      2.87240400      0.70462821
C           8.05961298      1.15394802      1.23379155
H           7.95669012      0.91275393      2.31091126
H           8.56929754      0.30985217      0.72885339
C           6.72873446      1.44281971      0.54834621
H           6.88475794      1.80163241     -0.49076867
H           6.15390570      0.45272826      0.42831301
C           4.51923790      2.49226867      0.51671515
H           3.73235304      3.02559762      1.07964486
H           4.64961312      2.96826509     -0.46673303
H           4.11317087      1.45992277      0.33386717
C           6.43132490      3.78878531      1.36159906
H           5.82095149      4.46722075      1.97961689
H           7.45269476      3.74278461      1.80082517
H           6.53504802      4.23617834      0.36012692
C           5.54261790      1.91127125      2.69131937
H           4.67525443      2.42383076      3.15007332
H           5.24908006      0.82569070      2.67232005
H           6.41575818      2.02134847      3.34681778
N           5.81486036      2.40941538      1.29111349
O           8.91242971      2.30781904      1.24098808
H           9.31587584      2.44849300      0.36100728
Cl          2.45313026      1.00111451      2.31998401
C           2.98620544     -2.15831943      0.59011153
H           2.49784319     -1.41592221     -0.06630431
H           2.92066896     -3.13013682      0.08295275
H           2.37799955     -2.20916748      1.50253274
C           4.41855722     -1.77003354      0.91022143
H           4.86933715     -2.43041736      1.69362767
C           5.30750989     -1.88746169     -0.34774935
O           4.55860777     -0.44816951      1.32873824
H           3.53101852      0.04831200      1.66469628
O           5.22815097     -3.14333352     -0.89570353
H           5.79523163     -3.25325283     -1.70150492
O           6.05722234     -1.07696652     -0.85381165
C          -0.62806466     -2.08538377     -5.15028120
H          -0.49162881     -1.30620769     -4.37779322
H           0.20854236     -2.01345017     -5.85312996
H          -1.54482623     -1.81988729     -5.69495481
C          -0.75766148     -3.46578034     -4.52831395
H          -1.08786374     -4.24927650     -5.25460701
C           0.59439438     -3.86990993     -3.90344781
O          -1.73434598     -3.51577603     -3.51007379
H          -1.68049192     -2.68573551     -2.92446683
O           1.11050494     -4.93788222     -4.60058303
H           1.97509629     -5.25823676     -4.23264195
O           1.21264817     -3.41407651     -2.97147606
          89
 Energy =     -0.98130771 a.u.  #Cluster:   17
C          -4.14262065      2.63436163     -0.64972911
C          -2.81086612      2.38961523     -0.29355939
C          -2.49034759      1.35894469      0.59319851
C          -3.49363389      0.54378078      1.14861927
C          -4.81467194      0.77965023      0.79490350
C          -5.14431653      1.83015453     -0.10868342
H          -4.40715360      3.43378939     -1.34050622
H          -2.02188164      3.01103726     -0.72892743
H          -3.21411243     -0.23765796      1.85408051
O          -6.43813150      2.08602613     -0.48362406
H          -7.06514180      1.45544484     -0.02954717
O          -5.93102978      0.09385336      1.24297059
C          -5.69589551     -1.15818989      1.93067792
H          -6.71900508     -1.51905468      2.09715963
H          -5.13049972     -1.84295294      1.29196466
H          -5.18583346     -0.97235432      2.88089103
C          -1.04678645      1.13591372      0.95992262
H          -0.54914555      2.10968058      1.22009942
C          -0.24023488      0.43524826     -0.16342545
H           0.15590979      1.19243241     -0.88536940
C          -0.98013821     -0.68688894     -0.90492680
H          -0.32270407     -1.56166115     -1.07969547
H          -1.90404319     -1.01331765     -0.39200243
O          -0.99400071      0.35706927      2.17833755
H          -0.24497053     -0.29634600      2.10627617
O          -1.35124053     -0.24953035     -2.22377130
H          -1.64969657      0.71032695     -2.19574211
O           0.84598976     -0.25775721      0.52043391
C           2.11690462      0.30416999      0.46584030
C           2.41829520      1.69061211      0.51318746
C           3.14259302     -0.64381138      0.42981380
C           3.75373293      2.10368939      0.53060949
C           4.47455474     -0.21657855      0.45326319
H           2.88796597     -1.70216630      0.38084095
C           4.77386369      1.14615851      0.50060611
H           4.00740240      3.16179347      0.56862252
H           5.27466616     -0.95420951      0.42415209
H           5.81345756      1.47385133      0.51002907
O           1.32990391      2.53222458      0.53795344
C           1.56624555      3.96557913      0.46440773
H           2.07708108      4.22051200     -0.46434482
H           0.53818489      4.36220226      0.48681928
H           2.11296894      4.30994807      1.35002197
C          -2.47649246      3.15481599      3.32886656
H          -2.06396191      3.52430715      2.36005852
H          -2.46183777      2.04848771      3.35388166
C          -1.75920374      3.82867407      4.51473281
H          -1.48958133      4.88121974      4.20627779
H          -2.48649204      3.95582001      5.34953835
C           0.30612248      4.06369319      5.83519886
H           1.19052877      3.57914895      6.27317488
H           0.67649842      4.90258396      5.18952740
H          -0.28398791      4.52316776      6.64321046
C           0.32720597      2.57326002      3.87935327
H           1.31334931      2.23057760      4.22177757
H          -0.16552714      1.72269139      3.35434954
H           0.51232744      3.36086137      3.10817517
C          -0.94830132      1.93207111      5.87586685
H          -0.08383471      1.34745094      6.22862368
H          -1.51775936      2.26918477      6.75783348
H          -1.60576946      1.24544493      5.30538513
N          -0.51987466      3.09985695      5.00988301
O          -3.85468681      3.48882108      3.41291628
H          -3.95404742      4.48678968      3.32816622
Cl          0.28352806      5.74882532      2.78959707
C          -2.78854149      5.57827706      0.81058633
H          -2.18510214      4.88337066      1.42281894
H          -3.82522317      5.22407801      0.83045385
H          -2.41651574      5.49197954     -0.21804995
C          -2.64096571      7.01637904      1.29045330
H          -3.21388112      7.74007558      0.65655796
C          -3.17471528      7.12667138      2.74597082
O          -1.33038951      7.46795277      1.24483597
H          -0.64932527      6.83060251      1.81739274
O          -3.31592588      8.43306902      3.10812010
H          -3.61283005      8.54879227      4.05012752
O          -3.47721493      6.26789575      3.55767095
C          -1.11127562      1.01763378     -5.30670825
H          -1.89754554      0.62625434     -4.64276726
H          -1.53584713      1.85089982     -5.87846994
H          -0.88237743      0.21122896     -6.01979570
C           0.14192715      1.41223191     -4.54177370
H           0.97185535      1.75665776     -5.20818430
C          -0.22361069      2.51410040     -3.52396875
O           0.70539385      0.33969155     -3.82417724
H          -0.00179425     -0.12270906     -3.24160304
O           0.32075972      3.70852830     -3.88217939
H           0.12132906      4.44519243     -3.23609039
O          -0.88812227      2.42581915     -2.50832009
          89
 Energy =     -0.98116432 a.u.  #Cluster:   18
C          -4.24288660      5.62578162     -0.40222814
C          -3.30788667      4.63813542     -0.07721975
C          -3.67908155      3.28957655     -0.00602643
C          -5.01436511      2.90604400     -0.20143087
C          -5.95004377      3.88332426     -0.51898355
C          -5.55991196      5.23471923     -0.64290855
H          -3.96601201      6.67514359     -0.45927353
H          -2.26375637      4.91643465      0.11134308
H          -5.28276171      1.84454974     -0.10580912
O          -6.46348333      6.19013542     -1.08575833
H          -7.39716927      5.82843666     -0.97254612
O          -7.27729010      3.62285369     -0.85081686
C          -8.01675275      2.86024671      0.15220195
H          -9.04917952      2.95712224     -0.19731536
H          -7.67601300      1.82085133      0.14233781
H          -7.87688567      3.30714510      1.14829406
C          -2.64599961      2.20240258      0.26564293
H          -2.11636449      2.39915348      1.23412252
C          -1.60044181      2.19768157     -0.89681017
H          -1.92502715      2.80887132     -1.77275492
C          -1.22892703      0.77346892     -1.34004113
H          -0.51120099      0.75943251     -2.17487832
H          -0.83566283      0.17287409     -0.49370249
O          -3.30539942      0.98654495      0.32466322
H          -2.66274394      0.14219631      1.14750308
O          -2.41309554      0.15587169     -1.84662940
H          -3.08026082      0.09954292     -1.02961907
O          -0.44986691      2.86708889     -0.28877473
C           0.66592884      3.00127397     -1.09240012
C           0.68331493      3.71188766     -2.31187627
C           1.85641619      2.45678027     -0.58687425
C           1.87519690      3.86233978     -3.02865702
C           3.04339898      2.62001310     -1.30175756
H           1.82750444      1.91244652      0.36005431
C           3.05305620      3.30918875     -2.52102704
H           1.86702366      4.40662827     -3.97060147
H           3.97056794      2.19923146     -0.91088073
H           3.98361789      3.41918755     -3.07553737
O          -0.48456644      4.22199679     -2.88829921
C          -0.92794036      5.45832815     -2.26441694
H          -1.84798684      5.68690115     -2.81202037
H          -1.12003410      5.28468972     -1.19473631
H          -0.17504055      6.23622441     -2.41119811
C          -6.32385161      3.28207023     -4.05045200
H          -6.86396555      4.22652308     -3.83122969
H          -6.53001814      2.99497186     -5.09989626
C          -4.82842814      3.46392348     -3.75004908
H          -4.54068518      4.52873275     -3.97054948
H          -4.64536581      3.31290475     -2.65773763
C          -2.47903219      2.94381266     -4.29596090
H          -1.76505922      2.27362483     -4.79986254
H          -2.28933233      3.97795859     -4.64444328
H          -2.20542949      2.92605920     -3.20645973
C          -4.19981442      2.61574658     -6.00474313
H          -3.50146467      1.99420166     -6.58914471
H          -5.22707866      2.27632812     -6.23417422
H          -4.09826785      3.66082881     -6.35505954
C          -4.10517580      1.10635838     -4.03836371
H          -3.70483073      0.36149955     -4.73860880
H          -3.55977910      0.92654988     -3.06104597
H          -5.17427576      0.88261156     -3.84278863
N          -3.91170199      2.52102834     -4.52089478
O          -6.86760429      2.20824672     -3.29128739
H          -7.07888867      2.52428390     -2.36359361
Cl         -1.92533391     -0.73240583      2.01382429
C          -5.00674258      0.55436317      2.85871098
H          -6.04505281      0.33718437      2.59988964
H          -4.45016708      0.71862684      1.90362803
H          -4.55615415     -0.36124620      3.27861440
C          -4.84704410      1.71862696      3.80635242
H          -3.79064900      1.86221356      4.15302265
C          -5.37365093      3.00237507      3.13184243
O          -5.57054386      1.56190729      5.02139118
H          -6.48712148      1.24676287      4.85147053
O          -4.34892816      3.89373760      2.96607799
H          -4.61589729      4.72451233      2.49301645
O          -6.49169809      3.29049846      2.76454488
C          -4.69336957      8.26095971     -3.12101124
H          -3.94955907      7.70497782     -2.53213952
H          -4.21338749      9.18250672     -3.47941745
H          -5.48695546      8.56521283     -2.41804904
C          -5.26508284      7.44127761     -4.26117285
H          -5.98485896      8.01856053     -4.89598629
C          -4.12490087      6.91010722     -5.14896416
O          -5.97336485      6.28676205     -3.82702126
H          -6.08511208      6.28199674     -2.81973919
O          -3.82632093      7.84971546     -6.09880989
H          -3.08552917      7.57935039     -6.70700279
O          -3.51784363      5.86243778     -5.12612051
          89
 Energy =     -0.98047577 a.u.  #Cluster:   19
C          -3.26977057      2.25273517     -0.58523672
C          -2.03405621      1.67574728     -0.28890906
C          -1.93454661      0.31769882      0.03995763
C          -3.08504944     -0.48586073      0.11479714
C          -4.31570177      0.08268403     -0.19226276
C          -4.41338963      1.45155010     -0.54778575
H          -3.35507707      3.30954818     -0.84450509
H          -1.12574231      2.30229508     -0.33296624
H          -2.99179869     -1.52976201      0.42167602
O          -5.61622153      2.01836087     -0.89069625
H          -6.35582193      1.36577304     -0.71680204
O          -5.52507311     -0.59516663     -0.25942293
C          -5.72436721     -1.62950086      0.73855275
H          -6.77631988     -1.89424775      0.58288169
H          -5.06625160     -2.48060395      0.53586420
H          -5.55808012     -1.22854195      1.74236210
C          -0.57600761     -0.28161858      0.30026292
H          -0.02319475      0.31840960      1.07013730
C           0.27706277     -0.37228633     -0.98823801
H           0.37215927      0.62729623     -1.47599136
C          -0.15929321     -1.46140428     -1.98434838
H           0.58967129     -1.57457552     -2.79314723
H          -0.33186887     -2.42885992     -1.47912888
O          -0.78216235     -1.61052180      0.82357257
H           0.07663080     -1.94568527      1.16874449
O          -1.35803059     -1.06869318     -2.67219200
H          -2.12092052     -1.09671406     -2.04510707
O           1.57376245     -0.87783708     -0.53817261
C           2.64303399      0.00358660     -0.53355546
C           2.59384672      1.33968564     -0.05602997
C           3.85617993     -0.55556505     -0.94543552
C           3.76938218      2.09508772      0.00796069
C           5.02722034      0.20742263     -0.86689818
H           3.88180254     -1.57430617     -1.32463600
C           4.98204633      1.52157890     -0.39432830
H           3.74544188      3.12032427      0.36905380
H           5.97351896     -0.22583407     -1.18268282
H           5.89588372      2.11094830     -0.33680073
O           1.35773620      1.78526265      0.35449603
C           1.13390207      3.22258461      0.35331557
H           1.64317726      3.71372679     -0.48332653
H           0.04159236      3.27898188      0.19331219
H           1.43298964      3.62097599      1.32378129
C           0.02385827      0.25473003     -4.93690193
H           0.29262193      0.67434533     -3.94431455
H          -0.28201916     -0.80365706     -4.83846426
C          -1.01764948      1.13002893     -5.65403161
H          -0.63819060      2.20814827     -5.61033884
H          -1.03701541      0.85828097     -6.73098096
C          -3.27509058      2.06041716     -5.87098769
H          -4.29735322      2.12762283     -5.46981719
H          -2.82313142      3.08601949     -5.80447251
H          -3.33492809      1.78353456     -6.93305284
C          -2.43813708      1.54050780     -3.63418385
H          -3.42291473      1.39998124     -3.16810865
H          -1.68069071      0.99344177     -3.02547419
H          -2.17519300      2.62219668     -3.55523995
C          -2.99022714     -0.30194958     -5.17630953
H          -4.03240526     -0.34231236     -4.82422473
H          -2.95659531     -0.67847378     -6.21100640
H          -2.39859744     -1.00383277     -4.54187380
N          -2.41976373      1.09414009     -5.07502265
O           1.17968108      0.20581080     -5.76951529
H           1.52586746      1.13102135     -5.91035136
Cl          0.17068126      3.06017431     -2.64319121
C           0.27312569      5.97243810     -4.63777052
H           0.89230379      5.50282186     -3.85718210
H           0.87719789      6.72972509     -5.15014272
H          -0.54447670      6.48659555     -4.11756731
C          -0.28468874      4.93326186     -5.60103831
H          -0.94253922      5.39211438     -6.37666411
C           0.89733929      4.23701464     -6.32289664
O          -1.03126444      3.95379716     -4.96738887
H          -0.49788469      3.61761452     -3.92479780
O           1.55622519      5.12717291     -7.13571093
H           2.32446609      4.72675271     -7.61910809
O           1.27337624      3.08429393     -6.29229299
C           2.15469807     -3.79002434     -0.72966139
H           1.40498065     -3.31608874     -0.08075804
H           3.13647302     -3.59543167     -0.27626266
H           2.12564066     -3.23728902     -1.68075572
C           1.91136971     -5.27094269     -0.95513465
H           2.65252824     -5.73004291     -1.65800393
C           1.91470483     -6.00234117      0.39825773
O           0.66691701     -5.52783384     -1.59110439
H          -0.08814893     -5.20310469     -1.04371391
O           3.17252985     -6.48490233      0.65646395
H           3.23969998     -6.96116256      1.52818739
O           1.01637850     -6.16837177      1.17895252
          89
 Energy =     -0.97822820 a.u.  #Cluster:   20
C          -1.56227123      2.42874529      0.60309953
C          -0.59833820      1.43143803      0.79386233
C          -0.98116089      0.10071811      0.98991816
C          -2.33743612     -0.26478838      1.01364685
C          -3.29781782      0.72253330      0.83320455
C          -2.91106868      2.07398733      0.61864587
H          -1.28265272      3.46686245      0.44019105
H           0.45914678      1.69893688      0.78657554
H          -2.59667208     -1.31240086      1.19098141
O          -3.83633088      3.07252487      0.42799413
H          -4.75860941      2.69077037      0.42755688
O          -4.67367145      0.55929848      0.86200749
C          -5.16715807     -0.80016692      0.77075758
H          -6.25246108     -0.64639309      0.73898363
H          -4.80422545     -1.27589030     -0.14529817
H          -4.87402279     -1.36440478      1.66243890
C           0.08660297     -0.95178833      1.18789490
H           0.82205753     -0.61375608      1.96371517
C           0.85164111     -1.20619631     -0.14248532
H           0.59507996     -0.47275733     -0.93729275
C           0.71261430     -2.63582735     -0.66145095
H           1.24252374     -3.37647276     -0.02966024
H          -0.34773248     -2.92916949     -0.76231570
O          -0.53772602     -2.15365867      1.61084645
H           0.12490200     -2.69611064      2.20900570
O           1.36380220     -2.60096285     -1.95264766
H           0.95781996     -3.23577259     -2.60397433
O           2.27047896     -1.04335043      0.23152330
C           2.94150108     -0.04880696     -0.46180978
C           3.26663173      1.13755974      0.24876320
C           3.36325518     -0.22865618     -1.77542606
C           4.03077683      2.13059055     -0.36200698
C           4.12716539      0.77539777     -2.38606337
H           3.08920047     -1.14832172     -2.31146337
C           4.45388018      1.93710652     -1.68634840
H           4.29217934      3.04473446      0.16032064
H           4.46038861      0.64307034     -3.41479578
H           5.04460082      2.71385926     -2.17158446
O           2.79052543      1.13806357      1.54386829
C           2.90391306      2.36938485      2.29778872
H           2.41443805      3.19256568      1.76850097
H           2.35591083      2.11666181      3.21666042
H           3.95284841      2.59003560      2.50672042
C           2.46288412     -2.44245246      3.07554470
H           2.26460211     -1.90539240      4.02524560
H           2.42516936     -1.70916704      2.23557616
C           3.83285936     -3.15736014      3.14712889
H           4.32202018     -2.95233337      4.12051992
H           3.64445312     -4.26484370      3.11481210
C           6.11257271     -3.48326566      2.26079889
H           6.84827627     -3.25024626      1.46838339
H           6.58117580     -3.16385002      3.20880136
H           5.98104564     -4.57935586      2.28715148
C           5.02399162     -1.28657532      2.02044044
H           5.70053308     -0.97834815      1.20695209
H           4.06091066     -0.74109487      1.86143892
H           5.45644506     -0.93982126      2.97095637
C           4.26116959     -3.20613317      0.67262660
H           4.84499589     -2.80171527     -0.17157556
H           4.23921977     -4.30982469      0.56565049
H           3.20670790     -2.86650172      0.52299621
N           4.79274480     -2.78112879      2.01753441
O           1.41317322     -3.35607877      2.94334068
H           1.67805336     -4.29209019      2.26187180
Cl          2.15242656     -5.47072086      1.33981805
C           3.10868468     -5.75499325     -1.77998194
H           3.00083359     -6.75870438     -2.20573481
H           3.75026253     -5.85101819     -0.88977594
H           2.12254343     -5.46115778     -1.38128572
C           3.67704714     -4.75288726     -2.76529977
H           4.70487320     -5.01822825     -3.11481827
C           2.71283240     -4.66406468     -3.96779231
O           3.83403520     -3.46362104     -2.21352956
H           2.92406274     -3.07655395     -1.90021468
O           3.27252712     -5.25987154     -5.06431846
H           2.68211625     -5.24208852     -5.86603078
O           1.59765553     -4.19102444     -4.04537310
C          11.41150946     -2.59604949      4.17843697
H          10.89326784     -3.56325673      4.15868154
H          12.16754686     -2.61070761      3.37983481
H          11.95628658     -2.54421934      5.13486753
C          10.47120968     -1.41193003      4.04280248
H          11.01218405     -0.42993073      4.02331119
C           9.61236964     -1.57560959      2.77694149
O           9.59970728     -1.27182377      5.15130511
H           9.09558573     -2.10313244      5.32069736
O          10.23134400     -0.98241257      1.71516805
H           9.72284752     -1.06331259      0.86122137
O           8.54304129     -2.12746957      2.64057730
          89
 Energy =     -0.97736178 a.u.  #Cluster:   21
C          -3.75167289      1.86117449     -0.54940923
C          -2.45913314      1.62114411     -0.08049819
C          -2.23646191      0.68281412      0.93515286
C          -3.31187105     -0.04158806      1.46637472
C          -4.60222680      0.16962041      0.98562310
C          -4.83781466      1.14987482     -0.01310318
H          -3.94730906      2.60021566     -1.32397996
H          -1.62543073      2.17373379     -0.50786221
H          -3.11893404     -0.76641875      2.26477808
O          -6.05928864      1.45329740     -0.53721322
H          -6.82658383      1.18796593      0.08957843
O          -5.70788161     -0.56128096      1.39715590
C          -5.52101363     -1.48153692      2.51271846
H          -6.53660761     -1.89208119      2.63612667
H          -4.79671594     -2.26067209      2.24163026
H          -5.19822162     -0.94076263      3.40576663
C          -0.83801935      0.45532311      1.47426774
H          -0.36196855      1.44373151      1.71745606
C           0.02434141     -0.28194796      0.41199755
H           0.22960585      0.37552003     -0.45941548
C          -0.53107153     -1.63890883     -0.05180830
H           0.28532496     -2.34414386     -0.29629250
H          -1.21119460     -2.10408015      0.68724401
O          -0.81005445     -0.23069728      2.68702272
H          -1.37587144     -1.25817901      2.71608399
O          -1.20871125     -1.44807946     -1.30012405
H          -2.07731588     -1.01026932     -1.14397708
O           1.28132775     -0.65357658      1.07556229
C           2.40992042      0.08493662      0.83179598
C           2.47345706      1.50044778      0.67830884
C           3.59573904     -0.66088286      0.83729314
C           3.71362709      2.13367351      0.57346384
C           4.83108197     -0.01294369      0.74130201
H           3.54144500     -1.74818068      0.89082894
C           4.89039090      1.37484652      0.61762303
H           3.77626906      3.21517165      0.47049961
H           5.74797398     -0.60492687      0.74438658
H           5.85533834      1.87560507      0.54858666
O           1.25803298      2.14819540      0.66597023
C           1.22777603      3.50428950      0.15125433
H           1.61064113      3.52828476     -0.87362789
H           0.15232010      3.72824328      0.18087361
H           1.78670273      4.17143645      0.81239735
C           2.53841788     -2.41993857      3.55513356
H           2.49442775     -3.03846950      2.63636727
H           3.22898250     -1.57027363      3.38101671
C           1.13054676     -1.99107213      3.95214920
H           0.58446224     -1.60529012      3.01826486
H           0.52811916     -2.86717971      4.29182879
C          -0.38073370     -0.68299196      5.42971990
H          -0.46432140     -0.00099279      6.28382551
H          -0.99429212     -0.25157569      4.58866707
H          -0.87907589     -1.64143417      5.67060841
C           1.57058333      0.39911558      4.38439602
H           1.45728328      1.26010300      5.05574851
H           2.62627922      0.31629155      4.08327582
H           0.97768182      0.61594068      3.45322156
C           1.86805361     -1.23411281      6.22652464
H           1.90744570     -0.39631155      6.93875881
H           1.43765267     -2.10761828      6.74705833
H           2.91107193     -1.51365259      5.96344679
N           1.05823024     -0.88407819      4.99878669
O           3.18646207     -3.15679214      4.60133222
H           2.80592022     -4.05653554      4.67832515
Cl         -1.86454280     -2.68300899      3.26778476
C           2.14013146     -1.92664351     -4.25636366
H           2.43749992     -2.86899078     -3.77839457
H           1.29691267     -1.52230699     -3.67325433
H           1.75328579     -2.17987908     -5.25436934
C           3.28516702     -0.93563148     -4.36653914
H           2.98032799      0.02961782     -4.84610691
C           3.88492609     -0.69016774     -2.97274596
O           4.32572795     -1.39495152     -5.21795369
H           4.68180654     -2.26318073     -4.91206729
O           3.43640286      0.50608107     -2.48410032
H           3.77900612      0.70821895     -1.56480970
O           4.63858323     -1.38007666     -2.33219347
C          -8.25071452     -1.02804156     -0.32074176
H          -7.31817371     -1.50940825      0.02433046
H          -8.91601952     -1.81493957     -0.69489661
H          -7.96231371     -0.40350438     -1.18161184
C          -8.89118013     -0.18331375      0.76609893
H          -9.72919970      0.45560104      0.39312020
C          -9.35064756     -1.08841131      1.91811993
O          -7.96621732      0.76522487      1.29823729
H          -7.19324096      0.29817633      1.76615340
O         -10.70487992     -1.27825304      1.85103057
H         -11.04877749     -1.87465885      2.57090911
O          -8.69681741     -1.61622499      2.78453937
          89
 Energy =     -0.97456928 a.u.  #Cluster:   22
C          -2.53813764      3.19881619      0.52428270
C          -1.43446076      2.37760444      0.78972414
C          -1.59432662      1.00729345      1.00847100
C          -2.88015793      0.43317914      1.00881094
C          -3.98031476      1.23749868      0.74473927
C          -3.80912309      2.62878056      0.49019179
H          -2.42211027      4.26821709      0.35625244
H          -0.43324582      2.82730208      0.82618843
H          -2.99873303     -0.63484268      1.21169697
O          -4.87502233      3.43651000      0.18856521
H          -5.72292683      2.90087027      0.20395169
O          -5.30099286      0.83588175      0.71115394
C          -5.53779811     -0.53056441      0.27090211
H          -6.61997854     -0.53025403      0.10020501
H          -4.98396446     -0.73627631     -0.65969864
H          -5.26026869     -1.22280140      1.06984712
C          -0.38318553      0.14706329      1.25595289
H           0.39640362      0.69779490      1.85563026
C           0.28010694     -0.41301250     -0.02378993
H           0.28164966      0.35552728     -0.83898207
C          -0.22231730     -1.78178374     -0.51834303
H          -0.13763219     -1.88600557     -1.62177509
H           0.35867918     -2.59963675     -0.04900704
O          -0.85314919     -0.96245635      2.08357907
H          -0.06722774     -1.52189018      2.33595423
O          -1.61646565     -2.00232244     -0.25685164
H          -1.80185117     -1.81567152      0.71049990
O           1.64848112     -0.69055643      0.40759732
C           2.66689569     -0.11526729     -0.34564200
C           2.77605606      1.26874991     -0.58070610
C           3.66888835     -0.99114360     -0.78685968
C           3.88578922      1.78434323     -1.25958562
C           4.77847172     -0.46683045     -1.45137664
H           3.54902342     -2.06195235     -0.63269093
C           4.88474609      0.91005006     -1.69164271
H           3.94935253      2.85209298     -1.45091449
H           5.55631332     -1.14062748     -1.80947482
H           5.74564791      1.29834666     -2.23243270
O           1.73490642      2.12609450     -0.20803286
C           2.01407134      2.84307647      1.02612433
H           2.85815634      3.51958306      0.88220652
H           1.07470439      3.38953408      1.19579881
H           2.20320928      2.13402345      1.84219352
C          -2.87532671      0.56381146     -2.41056381
H          -2.58581540      1.18340218     -1.54056558
H          -3.77172285      0.99632508     -2.89433212
C          -1.71329356      0.36830771     -3.39781178
H          -0.99331529     -0.39384207     -2.98227920
H          -2.08457756     -0.10380412     -4.33452323
C           0.12653818      1.30856823     -4.71274104
H           0.79213856      2.13627971     -4.94708044
H           0.87962386      0.45682350     -4.18536090
H          -0.23058160      0.83738649     -5.62530487
C          -0.31693247      2.22181088     -2.48426355
H           0.36467991      3.05556795     -2.71764299
H          -1.06759309      2.56973289     -1.75792246
H           0.33213209      1.46041403     -1.96679056
C          -1.88746205      2.66817975     -4.32862098
H          -1.33304022      3.55977116     -4.66769182
H          -2.41264658      2.25746764     -5.20681413
H          -2.64709744      3.00341293     -3.60436067
N          -0.94397103      1.64113958     -3.73100523
O          -3.31721442     -0.71344670     -1.97866005
H          -2.63478331     -1.14410894     -1.35570860
Cl          1.53604913     -0.63752512     -3.09108777
C           0.60575561     -1.14904968      4.82698787
H           0.84060370     -1.21750030      3.75273620
H           1.56004096     -1.13043839      5.37189504
H           0.09172825     -2.07825674      5.11851773
C          -0.26291090      0.05053599      5.16010424
H          -0.49703143      0.11769425      6.26374645
C           0.42824653      1.34374517      4.68117101
O          -1.53468861      0.01168258      4.54758841
H          -1.47034474     -0.28660192      3.57943944
O           0.44911775      2.25710070      5.71062006
H           0.88969499      3.11792644      5.47231837
O           0.91302261      1.64536368      3.61632017
C          -3.58386740      1.41739541      6.54319770
H          -2.94103066      0.80648247      5.88191974
H          -4.35872563      0.75293769      6.94219123
H          -4.07780378      2.15104928      5.88946370
C          -2.80636036      2.12051169      7.63859217
H          -3.45641172      2.74796094      8.30072057
C          -2.04114211      1.07645632      8.47531906
O          -1.87058054      3.05683988      7.13732909
H          -1.21876401      2.62873627      6.51602299
O          -2.54729661      1.05108709      9.74929371
H          -2.08450325      0.40141932     10.34320209
O          -1.13039786      0.34083448      8.17257192
          89
 Energy =     -0.97341609 a.u.  #Cluster:   23
C          -2.84129901      2.13811245     -0.38920057
C          -1.68167271      1.39041173     -0.12899965
C          -1.75054428      0.17105221      0.55314559
C          -2.99462215     -0.34294829      0.96684907
C          -4.14495019      0.37755704      0.68729286
C          -4.07510112      1.62719597      0.01501728
H          -2.79387675      3.09413134     -0.90298487
H          -0.72462894      1.76098414     -0.49578568
H          -3.01741832     -1.29433386      1.50484274
O          -5.20008504      2.36275214     -0.26677454
H          -6.00583596      1.91405157      0.11804431
O          -5.45187269      0.00590485      0.96715157
C          -5.63024488     -1.06326368      1.92714736
H          -6.71812791     -1.06192307      2.06818398
H          -5.28801950     -2.00660547      1.49143166
H          -5.10758432     -0.82957347      2.85890177
C          -0.48818202     -0.61000533      0.85195628
H           0.19826647     -0.02774286      1.51884353
C           0.26353240     -0.97804956     -0.45656099
H           0.20913801     -0.14486589     -1.19486560
C          -0.20369280     -2.30540702     -1.07372695
H           0.42804907     -2.61717272     -1.92550597
H          -0.24906336     -3.11860177     -0.32319016
O          -0.90319267     -1.78239595      1.55447427
H          -0.11018488     -2.41752503      1.70092561
O          -1.51620861     -2.11796814     -1.64528860
H          -2.16973279     -1.99068808     -0.91152131
O           1.65612828     -1.23009202     -0.07742116
C           2.58832750     -0.34959625     -0.59328427
C           2.60305634      1.03939716     -0.26536345
C           3.60450617     -0.89131109     -1.37222115
C           3.65456026      1.84634019     -0.69722582
C           4.67020668     -0.07465682     -1.78970150
H           3.54729595     -1.94707226     -1.65894663
C           4.68995221      1.27754036     -1.45473489
H           3.68230085      2.90575281     -0.46226417
H           5.46700407     -0.50018231     -2.39398713
H           5.50876887      1.91124261     -1.79192817
O           1.52705906      1.45740616      0.48585027
C           1.36842086      2.88317271      0.69457593
H           1.29301866      3.40340762     -0.26548937
H           0.41481055      2.91900297      1.24222771
H           2.18551510      3.26977164      1.30672224
C           5.76986644     -3.85936010      4.63011208
H           5.22755422     -3.27280460      5.39080144
H           5.27740215     -4.85106337      4.50997206
C           5.91672585     -3.10128247      3.29514520
H           6.01533851     -2.00833764      3.47422259
H           6.87587529     -3.42599911      2.81972308
C           5.01087797     -2.56621734      1.06412193
H           4.14528836     -2.68528057      0.35822047
H           5.09760143     -1.48501800      1.25254692
H           5.90349577     -2.91520459      0.52560090
C           3.46948526     -2.89088502      2.94770433
H           2.59803551     -3.04324173      2.23714772
H           3.17409349     -3.49870170      3.82289327
H           3.48308624     -1.82639473      3.21078303
C           4.69979358     -4.82479574      1.99319200
H           3.94845129     -5.02115601      1.19102279
H           5.66870614     -5.21282634      1.65041125
H           4.35328198     -5.43029885      2.85734558
N           4.76176272     -3.35361233      2.33100240
O           7.07594810     -4.20482575      5.08594684
H           7.50782071     -3.44489524      5.52893994
Cl          2.30323752     -4.15786950     -0.43361944
C          -3.25134444      1.61673807     -3.83011639
H          -2.53092735      2.44888835     -3.81480237
H          -3.95885991      1.79490919     -4.64543565
H          -3.80332144      1.66285537     -2.87942057
C          -2.53053968      0.28676159     -3.96369541
H          -3.21887692     -0.58650145     -3.87322447
C          -1.79964462      0.23177363     -5.32049617
O          -1.52122528      0.23146921     -2.96814484
H          -1.48182828     -0.70439660     -2.56265097
O          -2.04464799     -1.00011444     -5.89410413
H          -1.59185425     -1.12614339     -6.76550459
O          -1.12628685      1.03777052     -5.91349034
C          -0.41497260     -5.63807568      1.26340102
H           0.32523934     -5.93101063      0.50321126
H          -0.89117877     -6.55129899      1.64028496
H          -1.17819119     -5.04718652      0.73708506
C           0.20843261     -4.80966374      2.37757999
H          -0.56261475     -4.41849045      3.09156509
C           1.18282243     -5.68265022      3.20729586
O           0.90511989     -3.71267615      1.90026221
H           1.49314384     -3.92841357      0.81838838
O           0.52264676     -6.77796803      3.71457530
H           1.10185591     -7.36520286      4.26343168
O           2.35197590     -5.53552983      3.49806398
          89
 Energy =     -0.97310220 a.u.  #Cluster:   24
C          -3.67928974      2.12173427     -1.11293261
C          -2.38672381      1.84277903     -0.64259581
C          -2.13314441      0.68258888      0.08844588
C          -3.17075480     -0.23226036      0.37171123
C          -4.45102958      0.04151906     -0.08208426
C          -4.71397220      1.22683380     -0.83347779
H          -3.88111293      3.01680159     -1.69675811
H          -1.57870718      2.53910938     -0.87109746
H          -2.94504537     -1.13626602      0.93742428
O          -5.96362506      1.51789352     -1.30576064
H          -6.60192235      0.78095996     -1.07844162
O          -5.58944807     -0.71111001      0.11303643
C          -5.43268001     -2.07566195      0.57190733
H          -6.47634128     -2.42256913      0.52372997
H          -4.78969572     -2.64469231     -0.11006380
H          -5.05605427     -2.08064220      1.60132091
C          -0.73314468      0.36146286      0.53362103
H          -0.25159668      1.22139116      1.06715970
C           0.14752030     -0.12014013     -0.65630695
H           0.51193871      0.73035672     -1.27678605
C          -0.45003162     -1.26741426     -1.49147516
H           0.35925320     -1.86332252     -1.97927092
H          -1.04721941     -1.97691086     -0.88139768
O          -0.83621021     -0.71311238      1.49601712
H           0.08359260     -1.06625038      1.64677194
O          -1.25935471     -0.79532304     -2.57122390
H          -1.99434264     -0.22054415     -2.24546350
O           1.24988226     -0.84586153     -0.02195100
C           2.49708982     -0.25079377     -0.01326562
C           2.83910879      0.61995235      1.04935386
C           3.45098046     -0.67157454     -0.95110801
C           4.14327257      1.09285185      1.16749032
C           4.76455730     -0.21751647     -0.80085593
H           3.18049578     -1.33789210     -1.77667040
C           5.09849865      0.65837835      0.23625668
H           4.41335670      1.76706550      1.97672510
H           5.53227015     -0.55685538     -1.49874111
H           6.12368682      1.00492704      0.33733027
O           1.82265372      0.83940435      1.96451569
C           1.87164068      2.07721469      2.72430224
H           2.13170587      2.91812988      2.07825842
H           0.83744008      2.17495405      3.08745960
H           2.57524596      1.95740935      3.55414596
C           1.85466543     -1.98515644      4.18166196
H           2.45394978     -1.22329712      3.63058169
H           0.78271673     -1.72690321      4.11588084
C           2.13474477     -3.41936720      3.69394862
H           2.89516294     -3.88000760      4.36568921
H           1.22042391     -4.04352509      3.81556248
C           2.90816290     -4.96318033      1.94436167
H           3.00992426     -5.14107569      0.83425671
H           3.82802690     -5.29790204      2.44098269
H           2.06325669     -5.61630654      2.23925033
C           3.79936145     -2.64218643      1.99511096
H           4.03750792     -2.59243141      0.90052793
H           3.63349015     -1.59512754      2.32622893
H           4.69614602     -3.02202246      2.51234964
C           1.45756909     -3.06903210      1.36392744
H           1.75586078     -3.01253799      0.28458172
H           0.62468593     -3.79566271      1.35941740
H           1.09425715     -2.06190640      1.64872282
N           2.59232634     -3.51293798      2.24170542
O           2.32063718     -1.87820734      5.52728877
H           1.64554445     -2.20300703      6.16467869
Cl          4.10126093     -3.89936652     -1.27762625
C          -1.83266592     -4.50370237     -1.12183279
H          -1.82390660     -4.58726599     -0.02535751
H          -1.77121343     -3.43960722     -1.40263789
H          -2.80517077     -4.87563696     -1.49450704
C          -0.69032113     -5.30124905     -1.74634680
H          -0.70013113     -5.24056691     -2.85967705
C           0.67394184     -4.91078496     -1.14092450
O          -0.86625037     -6.69549266     -1.48563021
H          -0.50840856     -6.91215055     -0.58313499
O           1.32275819     -3.95184424     -1.68897355
H           2.71699124     -4.00144429     -1.53566144
O           1.06408726     -5.52717458     -0.12736899
C           1.67816332     -0.77269290     -6.34702075
H           1.10533894     -0.11461212     -7.02128040
H           2.74148425     -0.66876690     -6.60197985
H           1.36483866     -1.80075960     -6.57880766
C           1.39886308     -0.43538233     -4.89123975
H           1.60746948     -1.30310119     -4.21390578
C           2.19548832      0.78240023     -4.36388738
O           0.03523575     -0.04622033     -4.83351474
H          -0.35476484     -0.18309894     -3.90929658
O           3.19913184      1.14882823     -5.22669414
H           3.68742857      1.96373148     -4.93766557
O           2.03541048      1.39715032     -3.33032463
          89
 Energy =     -0.97002186 a.u.  #Cluster:   25
C          -3.46386547      2.62313419      1.21785922
C          -2.52179030      1.62725182      1.48391325
C          -2.79962346      0.28073626      1.20747569
C          -4.03457632     -0.10089423      0.66541512
C          -4.97910137      0.88861803      0.40995688
C          -4.69797083      2.24558431      0.67840785
H          -3.27137140      3.67063604      1.45218627
H          -1.55960046      1.90232935      1.92854405
H          -4.24571705     -1.15513754      0.48456051
O          -5.64685990      3.22157516      0.45883321
H          -6.42886420      2.81974168     -0.02739386
O          -6.29235447      0.63962836      0.00061075
C          -6.42653885     -0.14253876     -1.22012824
H          -7.51643464     -0.17324521     -1.35177113
H          -5.93003066      0.35828756     -2.05289962
H          -6.03349879     -1.15187380     -1.05767091
C          -1.75672987     -0.77774972      1.50837892
H          -1.29672487     -0.62208217      2.51758494
C          -0.66329292     -0.75919357      0.41489683
H          -0.58437846      0.25981031     -0.03941078
C          -0.82885930     -1.80850118     -0.69139955
H           0.14356645     -2.07476108     -1.15903855
H          -1.33832964     -2.72355287     -0.33923187
O          -2.37407448     -2.07722458      1.47968771
H          -2.70287252     -2.29589886      2.38638830
O          -1.57244858     -1.21469787     -1.76967564
H          -2.48584033     -1.02208938     -1.46995027
O           0.55161980     -1.07044534      1.16734890
C           1.73291349     -0.55914901      0.66730515
C           1.93499164      0.80784777      0.33740191
C           2.79820015     -1.46171517      0.58473381
C           3.18753379      1.24522547     -0.10281722
C           4.05429780     -1.01043842      0.15832354
H           2.62914335     -2.50448799      0.85628307
C           4.24195470      0.32365756     -0.18645734
H           3.36109490      2.28355679     -0.36717822
H           4.88320001     -1.71777305      0.09634665
H           5.22094352      0.66468702     -0.53157230
O           0.80983181      1.59430245      0.47174771
C           0.90856179      3.00271958      0.15446512
H           1.16592641      3.14330942     -0.89809920
H          -0.11933052      3.34022505      0.36009894
H           1.62394287      3.49334753      0.82029367
C          -6.90769298     -2.37104365      2.02145661
H          -5.81963662     -2.26593696      1.83307795
H          -7.27901486     -3.33673595      1.63378846
C          -7.23981217     -2.15081468      3.50934506
H          -6.62621757     -1.25785250      3.86950879
H          -8.29530084     -1.80884856      3.59945012
C          -6.72879381     -2.84065631      5.81797215
H          -6.59001093     -3.65913202      6.53995768
H          -5.79299316     -2.22220656      5.84091462
H          -7.54542178     -2.19011205      6.17500696
C          -5.80616234     -4.17236764      3.96313389
H          -5.53210912     -4.93826353      4.70678813
H          -5.99056910     -4.67876055      3.00280694
H          -4.89907082     -3.52937775      3.82638074
C          -8.21273852     -4.24221974      4.42636993
H          -8.04394449     -5.15852306      5.01782375
H          -9.09058581     -3.72746641      4.85556605
H          -8.48926095     -4.55232943      3.40136966
N          -6.98935358     -3.34711233      4.41450996
O          -7.63727224     -1.40305064      1.28422305
H          -7.14997243     -0.50739489      1.28990516
Cl         -3.92985644     -1.40746838      4.23217692
C          -8.05240107      1.56043036      2.54416278
H          -7.44541642      0.98038728      1.82565863
H          -8.66345333      0.83499163      3.08992294
H          -8.72841623      2.20517183      1.96961433
C          -7.18997278      2.38928866      3.48939802
H          -7.70190500      2.57750964      4.46480567
C          -5.81763602      1.73112015      3.76110516
O          -7.00996803      3.70583796      2.97859467
H          -6.42084896      3.69506504      2.17446685
O          -5.85806578      0.40823444      3.64726856
H          -4.80057765     -0.16599435      3.88465628
O          -4.80389040      2.32746591      4.05759718
C           0.92278498      0.35722080     -3.02712011
H           1.57800364      0.90071344     -2.33527016
H           0.65561803      1.03455405     -3.84659754
H          -0.01682248      0.13235065     -2.47935916
C           1.54264558     -0.93339910     -3.52861697
H           0.82808323     -1.54945087     -4.13167865
C           2.81216723     -0.61199963     -4.33738507
O           1.91599902     -1.80910499     -2.47724473
H           2.55980521     -1.37346111     -1.85795679
O           2.52916715     -0.66557162     -5.68096963
H           3.31567744     -0.46807863     -6.25443120
O           3.92438482     -0.33753545     -3.95838286
          89
 Energy =     -0.96747064 a.u.  #Cluster:   26
C          -3.68368948      2.65736077      0.08111798
C          -2.44054939      2.13928557      0.45818836
C          -2.33252637      0.83770130      0.96322138
C          -3.47331368      0.03383103      1.12477055
C          -4.70987124      0.54187355      0.74474872
C          -4.81880328      1.85562759      0.21900847
H          -3.76906023      3.67495568     -0.30904909
H          -1.54702269      2.76795159      0.33687238
H          -3.36924939     -0.96451189      1.55405170
O          -6.02840788      2.36088491     -0.19140668
H          -6.75964067      1.72459459      0.05647186
O          -5.91198182     -0.15116687      0.76194758
C          -6.06795856     -1.12106807      1.82915321
H          -7.10545337     -1.45327777      1.69416130
H          -5.37731257     -1.95880381      1.68361659
H          -5.91836026     -0.64221466      2.80003655
C          -0.97578503      0.28425397      1.31394813
H          -0.34996820      1.03931989      1.86027666
C          -0.21118320     -0.18797660      0.05502514
H          -0.01234772      0.67612823     -0.64043896
C          -0.81955387     -1.37963400     -0.69728955
H          -0.07073067     -1.84931837     -1.36200510
H          -1.24201837     -2.14471942     -0.01789148
O          -1.18371335     -0.82662439      2.20911141
H          -0.29177739     -1.22737903      2.41155434
O          -1.84401121     -0.92610051     -1.59748603
H          -2.65183032     -0.69103132     -1.08607234
O           1.03960541     -0.74100066      0.58732041
C           2.21175846     -0.08888387      0.23786281
C           2.40457398      1.30867615      0.38189033
C           3.25863202     -0.91955456     -0.16775085
C           3.65202169      1.86444555      0.07723253
C           4.50771568     -0.35340990     -0.44185820
H           3.08439886     -1.99316790     -0.27074665
C           4.69670725      1.02664559     -0.32737315
H           3.81161671      2.93628268      0.16838879
H           5.33021692     -0.99490446     -0.75227963
H           5.67133885      1.45889448     -0.55107153
O           1.33605809      2.01235541      0.88710412
C           1.16615590      3.37390227      0.39993732
H           1.24200578      3.39809227     -0.69649941
H           0.13129658      3.60037489      0.70175347
H           1.88627079      4.03156423      0.88658220
C           0.34513850      1.72588694     -3.37460076
H           0.52468680      0.63598778     -3.43693947
H           1.27749756      2.26577405     -3.64299137
C          -0.76120734      2.18707347     -4.37033700
H          -0.92060293      3.28541804     -4.20392839
H          -0.40721875      2.06107674     -5.41142702
C          -3.06236698      2.00400502     -5.23294653
H          -4.06714055      1.56206590     -5.11352393
H          -3.18073230      3.10097862     -5.13552132
H          -2.71979007      1.79084902     -6.25743835
C          -2.67126452      1.73158390     -2.82092079
H          -3.60160512      1.17993065     -2.64200149
H          -1.91561707      1.43244342     -2.03332327
H          -2.85259094      2.81114603     -2.64138098
C          -1.92891162     -0.01624001     -4.38490266
H          -2.89910377     -0.53640739     -4.42567323
H          -1.36146922     -0.25826816     -5.29299037
H          -1.38651269     -0.45980724     -3.50649998
N          -2.09662041      1.47277123     -4.19101518
O          -0.00104190      1.99725919     -2.06180429
H          -0.35058704      3.14187394     -1.92060346
Cl         -1.04292701      4.53042544     -1.85978935
C          -5.79953627     -3.39248216      5.52408014
H          -5.53046918     -4.38742421      5.90187180
H          -4.95664103     -3.02934606      4.91933959
H          -5.88077361     -2.73173883      6.40119439
C          -7.10225502     -3.39198083      4.74317434
H          -7.36071568     -2.38328612      4.33128812
C          -7.02567095     -4.43984524      3.62000257
O          -8.22473287     -3.69668052      5.55363700
H          -8.13201662     -4.58231398      5.98114560
O          -6.69172094     -3.82354033      2.43716382
H          -6.62842630     -4.45722716      1.67059812
O          -7.20490844     -5.63006489      3.66588202
C          -0.48942299     -5.13424981      2.82466405
H           0.18776780     -5.93086015      2.49050997
H          -0.15891135     -4.82051077      3.82471435
H          -1.48674188     -5.58483504      2.93519478
C          -0.54353236     -3.96289573      1.86183807
H          -1.19378117     -3.12107107      2.23288593
C           0.87773703     -3.45892008      1.55834246
O          -1.15459687     -4.30436170      0.62420248
H          -0.66153945     -5.02897152      0.16999782
O           1.16985412     -2.40566585      2.38504583
H           2.00563577     -1.91277915      2.12295474
O           1.67155122     -3.86751440      0.74789416
          89
 Energy =     -0.96627681 a.u.  #Cluster:   27
C          -3.63798587      0.75328340     -1.07584129
C          -2.35704051      0.36999273     -0.67787029
C          -2.15115489     -0.32243244      0.52681666
C          -3.23594953     -0.65107345      1.35333910
C          -4.51067125     -0.25130940      0.96482972
C          -4.72140141      0.45654023     -0.24016321
H          -3.80467192      1.27797467     -2.01698705
H          -1.51001636      0.61578736     -1.33082830
H          -3.07208759     -1.21335941      2.27769286
O          -5.97263498      0.85914212     -0.63025815
H          -6.64189599      0.61370659      0.07042176
O          -5.69071342     -0.53110457      1.67164407
C          -5.61372876     -0.28723474      3.10805520
H          -6.66898351     -0.26411474      3.39984606
H          -5.08653434     -1.12889005      3.58299361
H          -5.11898109      0.66562530      3.30822335
C          -0.75395213     -0.66115208      0.98405189
H          -0.28684893      0.23653059      1.46638631
C           0.17623208     -1.18085875     -0.13235484
H           0.50088417     -0.35818553     -0.81485398
C          -0.32599101     -2.38444013     -0.94426787
H          -0.07449971     -3.33096157     -0.42521564
H          -1.42407136     -2.34929564     -1.09370756
O          -0.87416175     -1.66074317      2.01805851
H          -0.00532176     -2.11913391      2.11380538
O           0.30102992     -2.40988319     -2.19654157
H          -0.07147037     -1.37434175     -2.94288280
O           1.32790659     -1.75569372      0.58843889
C           2.43578646     -0.99566536      0.88101171
C           2.78909267      0.27082883      0.36015769
C           3.30637859     -1.65239132      1.77028210
C           4.00129023      0.86302466      0.73537021
C           4.51636266     -1.05451198      2.12240565
H           3.01790372     -2.61742178      2.17846997
C           4.86402345      0.19991082      1.61014782
H           4.25406016      1.84623823      0.33857890
H           5.19016208     -1.56814845      2.80671125
H           5.80456024      0.66415360      1.89859489
O           1.89986773      0.96944055     -0.44143054
C           2.33163213      1.13393127     -1.82597050
H           2.53519044      0.15284555     -2.28350117
H           1.43915777      1.58645648     -2.28437494
H           3.19750473      1.79177432     -1.87349952
C           3.60605990     -2.65315217     -1.77117330
H           3.93958376     -1.97257243     -0.95778404
H           4.48807717     -2.95181377     -2.36688012
C           2.86428503     -3.84772775     -1.14086817
H           3.43112721     -4.24350254     -0.27508926
H           1.88865613     -3.44382531     -0.73045061
C           1.67103473     -5.98623008     -1.40524474
H           1.44924450     -6.85270483     -2.06229551
H           2.13412000     -6.36532058     -0.48353159
H           0.69465792     -5.53138595     -1.14122559
C           3.84015256     -5.65358397     -2.53542115
H           3.64328877     -6.56347259     -3.14030649
H           4.45745442     -4.97692024     -3.15404543
H           4.44537963     -5.96767078     -1.67151962
C           1.82321694     -4.48552933     -3.33800701
H           1.57688961     -5.29947066     -4.02943571
H           0.86774955     -3.94461940     -3.04624182
H           2.39771401     -3.69453248     -3.87056224
N           2.55362514     -4.97958344     -2.11570351
O           2.78312381     -1.93549049     -2.65646340
H           1.74381919     -1.97617480     -2.34068186
Cl         -0.27682807     -0.11373182     -3.61660965
C           3.76112075    -10.92219656     -3.44719403
H           3.01479703    -11.04325075     -2.65148631
H           3.43261931    -11.54481871     -4.29521850
H           4.70300680    -11.35619724     -3.07676692
C           3.96018598     -9.47935219     -3.86515947
H           4.73293790     -9.36150497     -4.66880784
C           2.63067675     -8.85587848     -4.32071560
O           4.46185249     -8.66205651     -2.81358013
H           3.99212172     -8.84429428     -1.96637996
O           2.24057190     -9.37630935     -5.51612728
H           1.37932682     -8.99155340     -5.85346804
O           1.97479648     -8.00498969     -3.76220975
C          -7.75540100     -5.40792295      3.31038605
H          -7.60812198     -5.06825870      4.34359405
H          -8.57376160     -4.81604204      2.87911110
H          -8.09461133     -6.45202695      3.36076461
C          -6.48719080     -5.30199284      2.47706016
H          -6.63674808     -5.63318526      1.41962190
C          -5.95858487     -3.85961749      2.53856022
O          -5.46992224     -6.17742218      2.94740765
H          -5.15509735     -5.90250982      3.84262764
O          -6.37084794     -3.15837605      1.46078815
H          -6.04406543     -2.17289563      1.46584227
O          -5.28241092     -3.36739736      3.41690876
          89
 Energy =     -0.96551449 a.u.  #Cluster:   28
C          -3.55709873      2.32158966     -0.77650596
C          -2.35089495      1.90135926     -0.20786658
C          -2.29290389      0.70933719      0.52480986
C          -3.45155839     -0.04779646      0.75244058
C          -4.65728154      0.38070814      0.20417154
C          -4.70857172      1.54907084     -0.60136979
H          -3.61785519      3.23442458     -1.36971738
H          -1.45261155      2.49905157     -0.35688411
H          -3.38337015     -0.94650400      1.37109049
O          -5.87447833      1.99332547     -1.16894520
H          -6.32838403      1.24686103     -1.69131681
O          -5.88065299     -0.23446466      0.40508418
C          -5.85312901     -1.62980681      0.80584391
H          -6.91915091     -1.89163665      0.78616626
H          -5.27605143     -2.21964397      0.08748203
H          -5.44709013     -1.71271292      1.81935990
C          -0.95822107      0.20787437      1.01913440
H          -0.39320272      0.99561156      1.57747423
C          -0.11145050     -0.31431985     -0.17000161
H           0.17743082      0.51699538     -0.85070711
C          -0.77460188     -1.45416220     -0.96343311
H          -0.01608222     -2.16284345     -1.37016946
H          -1.51220590     -2.02055553     -0.36880294
O          -1.20722044     -0.86904176      1.94115151
H          -0.35473558     -1.34999606      2.09284661
O          -1.38172160     -0.88071742     -2.12332283
H          -2.25520334     -0.49175876     -1.89712277
O           1.05930071     -0.92494544      0.45187879
C           2.28060004     -0.33339038      0.17593798
C           2.54262095      1.05320563      0.34974906
C           3.30214919     -1.20008974     -0.20937307
C           3.83051644      1.54836582      0.14438862
C           4.59324555     -0.69512518     -0.40781726
H           3.07058805     -2.26390567     -0.35160059
C           4.85172089      0.66388581     -0.23229638
H           4.05537294      2.60212626      0.27481837
H           5.39235470     -1.37042695     -0.70488864
H           5.85687665      1.05164156     -0.39125430
O           1.43664543      1.79988272      0.70458925
C           1.61659731      3.22285582      0.90130904
H           1.93449004      3.69756856     -0.03094223
H           0.60179134      3.53709711      1.18294063
H           2.32354464      3.40780307      1.71498208
C           2.25687390     -4.86460600     -1.84190197
H           1.43041242     -5.60220269     -1.87682933
H           3.07646239     -5.23570253     -1.19843655
C           2.74797190     -4.46612514     -3.24341776
H           2.01063667     -3.70538036     -3.69308611
H           3.70882274     -3.91659597     -3.17859342
C           3.40307079     -5.08020037     -5.53009080
H           3.45121796     -5.84334854     -6.31630860
H           2.72410283     -4.25311242     -5.90233654
H           4.39247566     -4.61184041     -5.41878812
C           1.51418235     -6.24719775     -4.48776588
H           1.58616322     -7.14767682     -5.10946336
H           0.97694740     -6.48797720     -3.54926077
H           0.84512384     -5.51568681     -5.01767170
C           3.81079226     -6.67290484     -3.68847684
H           4.00963437     -7.45800511     -4.43742116
H           4.78110281     -6.23004977     -3.40467888
H           3.39516033     -7.16885633     -2.79414008
N           2.86442373     -5.62071553     -4.22613065
O           1.83113960     -3.68325787     -1.18138209
H           0.91738827     -3.39557690     -1.50355721
Cl         -0.65071001     -4.34520810     -3.05789877
C          -8.53966562     -3.01430652     -1.84541187
H          -7.50248836     -3.16385205     -2.17343206
H          -8.57265693     -3.15784284     -0.75761106
H          -9.13356809     -3.82091181     -2.30079639
C          -9.10077844     -1.65839678     -2.24685277
H         -10.12308173     -1.47361767     -1.83130341
C          -8.12247572     -0.56180073     -1.80086569
O          -9.29900267     -1.55106554     -3.64519259
H          -8.43968239     -1.59339112     -4.13466571
O          -8.29709095     -0.24567413     -0.49532318
H          -7.58294205      0.39396932     -0.13892061
O          -7.26466947     -0.02684188     -2.47717191
C           0.68832700     -1.10797788     -4.39520693
H           1.55576004     -1.21825572     -3.73673682
H           0.63629188     -0.06674292     -4.73137068
H          -0.20782069     -1.28155644     -3.76319409
C           0.70800557     -2.09270581     -5.55507512
H          -0.21384775     -2.01618365     -6.18374244
C           1.93913068     -1.80563424     -6.43562507
O           0.86649787     -3.41333709     -5.13370840
H           0.05106151     -3.69878692     -4.26935221
O           1.66997487     -0.77004864     -7.29971864
H           2.43654775     -0.53671968     -7.88185426
O           3.03102603     -2.33167767     -6.47728366
          89
 Energy =     -0.96252401 a.u.  #Cluster:   29
C          -3.10075163      2.48337297      0.01060302
C          -1.85911384      1.88289060      0.23667222
C          -1.77095776      0.59165210      0.77398084
C          -2.92933441     -0.13718848      1.08954678
C          -4.16410089      0.45215025      0.85094048
C          -4.25786098      1.76897207      0.32945277
H          -3.18322597      3.48748523     -0.40137738
H          -0.94791180      2.43014561     -0.01299056
H          -2.83918519     -1.13857403      1.52282758
O          -5.47220133      2.36461344      0.10727991
H          -6.20825259      1.76044085      0.42220885
O          -5.40739005     -0.14858507      1.00968577
C          -5.54958706     -1.11717581      2.09700979
H          -6.62739559     -1.32560051      2.05706926
H          -4.95795379     -2.01249148      1.88896780
H          -5.26158981     -0.66188676      3.04876184
C          -0.40633819     -0.01216775      0.99240624
H           0.25829838      0.67885822      1.57132176
C           0.26266383     -0.37105563     -0.35723021
H           0.33146096      0.51646992     -1.02494710
C          -0.39258668     -1.55456264     -1.09166261
H           0.36188639     -2.12357224     -1.67005616
H          -0.92815310     -2.23003005     -0.39946126
O          -0.58497863     -1.20429405      1.77882376
H           0.28795235     -1.65506631      1.86784018
O          -1.27930325     -1.04720831     -2.08942569
H          -2.11043816     -0.72353744     -1.67563418
O           1.59153559     -0.86775517     -0.00342132
C           2.67807998     -0.07187226     -0.30874720
C           2.74705262      1.33474649     -0.11652887
C           3.80269145     -0.77454060     -0.74796703
C           3.94208275      2.01144513     -0.36586314
C           5.00247357     -0.08928931     -0.97204931
H           3.73099825     -1.85085672     -0.90439150
C           5.06814091      1.29125425     -0.78883993
H           4.01371947      3.08795202     -0.23771282
H           5.88770410     -0.65020890     -1.28017214
H           6.00072967      1.82191162     -0.97969948
O           1.57173661      1.91917414      0.31955188
C           1.58695335      3.34494832      0.57696135
H           1.78741596      3.89516719     -0.34673072
H           0.55883511      3.51729462      0.92796978
H           2.31169856      3.58332629      1.36024482
C          -7.92508778     -4.43339187      1.30211554
H          -7.73697539     -3.41559484      0.89918171
H          -6.99435000     -5.02882069      1.23331649
C          -8.45054373     -4.41943499      2.69656963
H          -8.56663905     -5.40846287      3.14393078
H          -7.38863117     -3.90052487      3.43119854
C          -9.86672601     -3.54072890      4.47742378
H         -10.70800864     -2.89032071      4.75470351
H         -10.07347545     -4.55952022      4.84129637
H          -8.96290442     -3.18598940      5.02533114
C         -10.85682350     -4.00678238      2.26488074
H         -11.70549024     -3.32408357      2.40540704
H         -10.65119396     -4.09007184      1.17284609
H         -11.15131569     -5.01096564      2.60485015
C          -9.32881206     -2.10274497      2.55955624
H         -10.14783059     -1.42192455      2.82552587
H          -8.39575756     -1.72720415      3.03221495
H          -9.16898778     -2.03107781      1.45954593
N          -9.60919930     -3.52786054      2.98176434
O          -8.87739115     -4.96262887      0.32929924
H          -8.96189679     -5.92985508      0.42498981
Cl         -6.37343732     -3.06225886      4.18299031
C           4.42705427      0.00883702      2.76388004
H           4.62125174      0.55045304      1.82713608
H           3.43284048     -0.45162625      2.66738820
H           4.36830067      0.76088649      3.56311998
C           5.49883495     -1.01980927      3.07721084
H           5.31783909     -1.55453986      4.04388917
C           5.61046067     -2.02090370      1.91702320
O           6.77409925     -0.42753473      3.27340397
H           7.07448912      0.04961015      2.46259375
O           4.73438166     -3.05650577      2.11185314
H           4.75988964     -3.73284159      1.38241764
O           6.32116089     -1.98712999      0.94193796
C          -9.17460970     -2.52726312     -2.85569594
H          -9.89247798     -2.55726381     -2.02440641
H          -9.25613470     -1.53942177     -3.32484095
H          -9.50192882     -3.27396798     -3.59311461
C          -7.75790190     -2.82725212     -2.39548726
H          -6.99991928     -2.71741696     -3.21287931
C          -7.39702083     -1.91497270     -1.20372391
O          -7.59646613     -4.17284873     -1.99128484
H          -8.22776281     -4.42685346     -1.24644447
O          -6.15170413     -1.40772367     -1.33236384
H          -5.84699901     -0.87965995     -0.49998912
O          -8.07210607     -1.65481530     -0.22425889
          89
 Energy =     -0.96118110 a.u.  #Cluster:   30
C          -3.15144350      2.42390505     -0.93035037
C          -1.96449869      1.96383859     -0.35245315
C          -1.95945163      0.82463874      0.46364192
C          -3.15799284      0.15137945      0.74059464
C          -4.33629984      0.58782511      0.15252250
C          -4.34272465      1.73364470     -0.68541184
H          -3.16769254      3.30931274     -1.56538720
H          -1.03069791      2.50234129     -0.54262057
H          -3.16013790     -0.71327586      1.41653178
O          -5.48504029      2.18899742     -1.28466887
H          -6.26466570      1.61772567     -1.01791500
O          -5.56356219     -0.05527914      0.24573288
C          -5.81371984     -0.79601847      1.47442936
H          -6.83310792     -1.17145841      1.30659260
H          -5.11566223     -1.64137746      1.55553599
H          -5.75850497     -0.12530141      2.33319297
C          -0.64660942      0.30525677      0.99367925
H          -0.05231903      1.11663527      1.49125689
C           0.17934126     -0.35535691     -0.13863964
H           0.44438227      0.38486557     -0.92893159
C          -0.47879704     -1.60103651     -0.75962139
H           0.28637888     -2.29775013     -1.15566592
H          -1.12936763     -2.14199757     -0.04197666
O          -0.92222992     -0.66602607      2.02946895
H          -0.10172643     -1.22404236      2.20900576
O          -1.22717035     -1.21849263     -1.91522449
H          -1.99111603     -0.65173998     -1.65520763
O           1.37322067     -0.90486288      0.48289348
C           2.50652195     -0.11994026      0.59742635
C           2.59523229      1.29401459      0.49175085
C           3.64756508     -0.87241111      0.89859989
C           3.81669065      1.92827365      0.72382723
C           4.86825857     -0.22379545      1.11193302
H           3.55984279     -1.95597048      0.97695964
C           4.94940230      1.16693950      1.03164634
H           3.89031485      3.02199184      0.68263378
H           5.75123372     -0.81311806      1.35165260
H           5.89564819      1.67301717      1.22120103
O           1.41905671      1.93985450      0.16752705
C           1.46030138      3.37717033     -0.05187244
H           1.90143441      3.57443444     -1.03402270
H           0.39442119      3.63747069     -0.02120257
H           2.02420555      3.89579753      0.73187516
C           6.82967273      4.32486403     -1.93325748
H           6.43959522      5.35924746     -1.92490423
H           6.37932059      3.76217188     -1.08809795
C           6.64732970      3.61899943     -3.29641631
H           6.95843042      4.30921763     -4.11079768
H           7.35713825      2.75796359     -3.32706659
C           5.24257246      2.40571958     -4.90863034
H           4.24014079      2.00912337     -5.15022049
H           5.52061914      3.08987436     -5.72772204
H           5.94669911      1.55903199     -4.91335347
C           4.28213944      4.26890162     -3.62896011
H           3.26679070      3.99381417     -3.90855694
H           4.11872522      4.75315123     -2.46793011
H           4.62164925      5.11331311     -4.22236926
C           4.79541695      2.14887327     -2.50488405
H           3.78374690      1.75496315     -2.70119754
H           5.49235374      1.30442136     -2.40262373
H           4.72796484      2.65431496     -1.50929929
N           5.22939796      3.12979533     -3.57136608
O           8.23528937      4.29240935     -1.67133936
H           8.66469438      5.12109140     -1.96521490
Cl          4.02526030      5.14363442     -0.87640068
C          -3.47694688     -4.61087078      2.50508597
H          -3.06439336     -5.20707650      1.68024163
H          -3.54090982     -5.25589670      3.39072549
H          -4.49956056     -4.32387983      2.20350919
C          -2.64257421     -3.37438817      2.77264876
H          -3.09639155     -2.71303983      3.55286505
C          -1.20034920     -3.68952572      3.20987653
O          -2.56906836     -2.67272745      1.54283669
H          -1.93930519     -1.84146995      1.62814004
O          -1.14633577     -4.76601641      4.05111346
H          -0.22046158     -4.96847769      4.36043768
O          -0.18478950     -3.08973499      2.92888248
C          -3.72492519     -3.14378492     -1.29658691
H          -3.52192546     -2.73366532     -0.29077387
H          -3.22486421     -4.11932230     -1.34294204
H          -3.21002730     -2.49090542     -2.02091068
C          -5.20491109     -3.24482006     -1.60445143
H          -5.41741669     -3.79055708     -2.55939713
C          -5.90286901     -3.95088850     -0.42347933
O          -5.82732747     -1.99398160     -1.80989024
H          -5.62809097     -1.35012525     -1.06799820
O          -6.24988336     -5.22539136     -0.79821203
H          -6.70969709     -5.73617551     -0.08271513
O          -6.14662448     -3.56868274      0.69771713
          89
 Energy =     -0.96071514 a.u.  #Cluster:   31
C          -3.58697254      2.20649915      1.23902433
C          -2.26288053      1.76865407      1.37358883
C          -1.96109285      0.40475150      1.34163526
C          -2.98483958     -0.55289674      1.20107009
C          -4.29862170     -0.12673841      1.08121544
C          -4.60430816      1.26499172      1.08948609
H          -3.83263796      3.26875354      1.26152975
H          -1.46824461      2.50763438      1.54197157
H          -2.73440831     -1.61706659      1.21226381
O          -5.88923891      1.72578734      0.96561614
H          -6.52283817      0.96641208      0.83223189
O          -5.41995280     -0.92762952      0.97097943
C          -5.19495225     -2.34408286      0.75508835
H          -6.22070903     -2.72371907      0.67413188
H          -4.63558736     -2.50268484     -0.17208675
H          -4.67580485     -2.78048266      1.61506097
C          -0.53527535     -0.04117767      1.51497333
H           0.06766339      0.72320908      2.08746545
C           0.19179133     -0.39371317      0.19681915
H           0.56410938      0.52698950     -0.31248935
C          -0.57782347     -1.27701049     -0.80112358
H           0.12593799     -1.80197553     -1.47793356
H          -1.23180238     -2.01720720     -0.30344437
O          -0.57856702     -1.22588153      2.35439486
H           0.34954093     -1.60637002      2.45812948
O          -1.33681054     -0.45278294     -1.68477729
H          -2.07236192     -0.01349535     -1.19786103
O           1.29076618     -1.26071833      0.61915916
C           2.57353558     -0.73777804      0.70473419
C           2.90436210      0.60903269      1.00658696
C           3.57817405     -1.69518613      0.53594802
C           4.24590478      0.97199906      1.15671133
C           4.91654195     -1.31844817      0.69019149
H           3.30886666     -2.72146430      0.29509083
C           5.24243270      0.00381711      0.99492616
H           4.51551877      1.99815233      1.39474489
H           5.70918240     -2.06326037      0.57470859
H           6.29385692      0.28771439      1.10145548
O           1.83983235      1.47773759      1.07825568
C           2.04284741      2.75101631      1.75093666
H           2.78101563      3.35234873      1.22123760
H           1.03428863      3.19271757      1.68911427
H           2.30281023      2.58101040      2.80187608
C          -1.08038545     -1.31299955      7.92899498
H           0.00565033     -1.40881573      7.71793938
H          -1.24745711     -0.50519791      8.66261480
C          -1.91541460     -1.12806774      6.64965595
H          -1.98428018     -2.11438266      6.12816486
H          -2.95804149     -0.84533862      6.91454684
C          -2.29250181      0.02785719      4.51561224
H          -2.00363238      0.90241837      3.87671057
H          -2.23477795     -0.85612263      3.85116299
H          -3.33109602      0.19371556      4.82695507
C           0.00884191     -0.53720537      5.19104341
H           0.42270779      0.21805795      4.47877937
H           0.73742678     -0.64764020      6.00574358
H          -0.05640935     -1.49292761      4.63225215
C          -1.21996535      1.24713479      6.34778578
H          -0.79396923      2.03523716      5.51062016
H          -2.17076021      1.66821883      6.67213501
H          -0.48568933      1.28227627      7.15016552
N          -1.34504160     -0.08769012      5.69097837
O          -1.40373604     -2.58050124      8.49929465
H          -2.28383922     -2.55949320      8.93035106
Cl         -0.16086522      2.71349208      4.01789656
C           0.38950236     -4.30520933      0.55174937
H           0.91607741     -3.33325210      0.57566214
H           1.15034160     -5.09349484      0.59111544
H          -0.10097149     -4.37165560     -0.42997615
C          -0.63543432     -4.43706533      1.66551659
H          -1.17031797     -5.41899525      1.64519501
C           0.08533483     -4.24206371      3.01576714
O          -1.66995085     -3.48536176      1.57515110
H          -1.30605877     -2.51580346      1.71396251
O           0.20681794     -5.43358421      3.66944193
H           0.66682900     -5.35580441      4.55074485
O           0.52024854     -3.22692220      3.52093856
C           9.87066976     -0.63252420      0.66795885
H          10.63184727     -1.36383789      0.36602135
H          10.21450954      0.35622325      0.33442086
H           9.85801322     -0.62115508      1.76832265
C           8.49141874     -0.96270883      0.12678043
H           7.70969556     -0.20906786      0.43330017
C           8.55218749     -1.09996188     -1.40187833
O           7.97834842     -2.17602003      0.65706220
H           8.56199721     -2.94128527      0.43510502
O           8.18595815      0.08127139     -1.98901616
H           8.19443403      0.04318232     -2.98500947
O           8.86646779     -2.05681015     -2.06575849
          89
 Energy =     -0.95798986 a.u.  #Cluster:   32
C          -3.06874332      2.83113389      0.16976881
C          -1.73141495      2.40929021      0.15021414
C          -1.39303851      1.08947977      0.46466388
C          -2.38842256      0.16332145      0.81612334
C          -3.71655762      0.56711735      0.82414367
C          -4.06024008      1.91304795      0.50230311
H          -3.34185700      3.85864545     -0.05912179
H          -0.95875058      3.13274362     -0.09975008
H          -2.09908986     -0.86075406      1.09459456
O          -5.36493558      2.34350657      0.49781423
H          -5.96544559      1.61444895      0.82694079
O          -4.82024572     -0.21286841      1.08293707
C          -4.57993982     -1.53457861      1.64005145
H          -5.59678564     -1.87523733      1.86128318
H          -4.09196526     -2.16787027      0.89519618
H          -3.97821092     -1.46749048      2.55902083
C           0.06262056      0.67531603      0.36109310
H           0.71336170      1.51173745      0.75596750
C           0.40592790      0.45967338     -1.14023344
H           0.58227153      1.45275457     -1.61552991
C          -0.60658419     -0.37148429     -1.94462478
H          -0.10177019     -1.15011134     -2.54852224
H          -1.37392894     -0.85626710     -1.31461644
O           0.38184725     -0.48622724      1.07960709
H           1.17574777     -0.19151005      1.85676044
O          -1.22566796      0.48907545     -2.91810279
H          -1.94581143      1.00859702     -2.49049587
O           1.61217702     -0.33845522     -1.36228834
C           2.75878251     -0.08287136     -0.63927844
C           3.31736764      1.19430539     -0.42724432
C           3.46754157     -1.23333736     -0.25790756
C           4.56600356      1.32065997      0.19357431
C           4.72251050     -1.09739929      0.33336509
H           2.99540470     -2.20691402     -0.38762933
C           5.27001851      0.17282388      0.55711866
H           4.95401707      2.31293109      0.44552481
H           5.26798357     -1.98540990      0.65348425
H           6.22781122      0.27381036      1.07340871
O           2.64381757      2.31325873     -0.91844809
C           2.29783475      3.28575030      0.11542060
H           3.20189074      3.61966229      0.64456076
H           1.82544066      4.08805799     -0.45058482
H           1.61088280      2.80049031      0.83412638
C           1.09275422      1.44360100     -4.71235142
H           1.11157913      0.82453284     -5.62804205
H           0.11231537      1.27353318     -4.19196401
C           2.23906536      1.14704415     -3.74659126
H           2.22054289      1.88224338     -2.88950801
H           2.05206381      0.14966182     -3.24692718
C           4.63457968      0.70375324     -3.31605921
H           5.65680480      0.64094725     -3.71959343
H           4.65925290      1.40901947     -2.45341285
H           4.37298550     -0.28585564     -2.88893247
C           3.99747398      2.54448885     -4.81907293
H           4.96163413      2.56960415     -5.34780620
H           3.21206597      2.95518753     -5.49801150
H           4.05676846      3.24197305     -3.96150164
C           3.69678530      0.19657634     -5.53251569
H           4.71457759      0.13120240     -5.95284722
H           3.39108985     -0.82362289     -5.23286355
H           3.02316112      0.51940237     -6.34959725
N           3.63361859      1.15073174     -4.36017269
O           1.17316252      2.78344034     -5.20831516
H           0.74698830      3.40837599     -4.58015326
Cl          2.20892716      0.70225055      2.77783391
C           5.94103757      1.96799756      5.01541223
H           6.65657715      2.41039224      4.30901123
H           5.67736518      2.72109529      5.76600786
H           6.46765772      1.14538642      5.51885695
C           4.71279914      1.43448798      4.29378745
H           3.97075921      0.95655289      4.98267748
C           4.01673791      2.57411602      3.52655491
O           5.19407226      0.45881687      3.37611467
H           4.42546936      0.03806960      2.88869767
O           3.00406274      3.06593304      4.31385058
H           2.41280974      3.69982970      3.83887255
O           4.25657446      3.10118945      2.46197134
C          -0.81491250     -0.96137071      4.20440263
H          -1.64974049     -0.30205709      3.93198295
H          -0.73527908     -0.98480522      5.29637184
H           0.10091481     -0.46032628      3.83748553
C          -0.95530687     -2.34501913      3.59790606
H          -0.05116706     -2.98081393      3.76783611
C          -2.19592288     -3.03434316      4.18843224
O          -1.20771171     -2.32015072      2.19908930
H          -0.67039687     -1.54755456      1.75053924
O          -1.77886121     -4.03285010      5.04625503
H          -2.52959986     -4.51096464      5.47976589
O          -3.37897469     -2.83660372      4.05273425
          89
 Energy =     -0.95590655 a.u.  #Cluster:   33
C          -3.48835050      1.68800459      0.71067374
C          -2.16289334      1.28139616      0.88138241
C          -1.85567276     -0.03839447      1.23901326
C          -2.87282766     -0.98822610      1.43570793
C          -4.19203633     -0.59422194      1.25517286
C          -4.50514783      0.74610048      0.88883820
H          -3.74091393      2.71102347      0.43038027
H          -1.35658088      2.00682509      0.72445189
H          -2.62382550     -2.01348508      1.72580689
O          -5.80039020      1.13368085      0.70864207
H          -6.40540931      0.32967208      0.81072120
O          -5.30643963     -1.38508372      1.47163098
C          -5.31496325     -2.65252816      0.75462882
H          -6.24050356     -3.11075876      1.11587270
H          -5.34445355     -2.46366785     -0.32844881
H          -4.43581641     -3.25382518      1.01031056
C          -0.41024951     -0.42341730      1.37238380
H           0.17444764      0.35369790      1.94805377
C           0.26657697     -0.63933132     -0.00488544
H           0.25052716      0.29146706     -0.61457287
C          -0.27428188     -1.84985358     -0.77511999
H           0.43081254     -2.17679806     -1.56393095
H          -0.50398214     -2.69824090     -0.09755322
O          -0.33102549     -1.65036813      2.12997626
H           0.59642353     -1.99965271      2.06561324
O          -1.48767591     -1.54352089     -1.49314365
H          -1.94866522     -0.76183400     -1.10185876
O           1.62634631     -1.03705141      0.32842693
C           2.63800319     -0.10047126      0.14426911
C           2.54342148      1.28856755      0.41491074
C           3.84946782     -0.66466077     -0.26705154
C           3.68024697      2.09048904      0.27276200
C           4.97851026      0.14940268     -0.39629699
H           3.89614874     -1.73382863     -0.47297599
C           4.89118822      1.51711526     -0.12635483
H           3.62868127      3.16545836      0.47347095
H           5.92492169     -0.28710059     -0.71276192
H           5.77367269      2.15049882     -0.23394416
O           1.30091068      1.74891244      0.79983411
C           1.13625491      3.19381417      0.93994703
H           1.34453050      3.69457613     -0.01124887
H           0.08107800      3.28136623      1.22724321
H           1.78033721      3.58137991      1.74063017
C          -0.84759389     -0.45808129      5.45227036
H           0.25586295     -0.35806991      5.46564625
H          -1.21152751     -0.63124683      6.48415537
C          -1.54795593      0.74034440      4.78750372
H          -1.87986556      0.43603721      3.76016536
H          -2.49702758      0.97730759      5.31798776
C          -1.45286412      3.02259148      3.89147414
H          -0.70372270      4.01516142      3.72074197
H          -1.72141242      2.69701356      2.88897270
H          -2.32601773      3.42928803      4.39726676
C           0.62061960      1.70916065      4.02042156
H           1.24644733      2.63402561      3.96024850
H           1.19687376      0.94512004      4.56225684
H           0.48914059      1.37344315      2.96675925
C          -0.42885688      2.56948832      6.06297158
H           0.10309232      3.54934253      5.96692818
H          -1.36137124      2.77219666      6.61181685
H           0.20165209      1.90259291      6.66650931
N          -0.70466831      2.00663833      4.68369256
O          -1.20833274     -1.65241620      4.77756176
H          -0.90496416     -1.62927062      3.81935304
Cl          0.61446722      5.04252465      3.69259758
C          -4.10708677     -5.67157732     -1.44455358
H          -5.00219886     -5.45901785     -0.84302697
H          -4.38913292     -6.35685275     -2.25313772
H          -3.40381291     -6.19535375     -0.77964639
C          -3.47201587     -4.39829898     -1.97870251
H          -2.56061892     -4.59742475     -2.59105666
C          -4.49740385     -3.61417429     -2.81816594
O          -3.13781787     -3.61028434     -0.84677513
H          -2.55077412     -2.82696634     -1.11811395
O          -4.41949031     -4.04042693     -4.12403442
H          -5.06000429     -3.57763495     -4.72647576
O          -5.28272902     -2.75371433     -2.50895551
C           2.78954412      4.21744690     -4.10479594
H           1.90837675      3.84494023     -3.56510931
H           2.51928128      5.18636727     -4.54529711
H           2.97330029      3.52145971     -4.93701213
C           4.02217680      4.32067180     -3.22248871
H           4.89189671      4.79443888     -3.74500124
C           3.66419850      5.08979572     -1.93977423
O           4.53140226      3.05082068     -2.84883943
H           3.85371205      2.51423913     -2.36414657
O           4.22647017      6.33392040     -1.96325976
H           4.01897271      6.87256350     -1.14609889
O           2.99320017      4.72736946     -1.00224174
          89
 Energy =     -0.95481444 a.u.  #Cluster:   34
C          -3.24517170      2.15426582     -0.18568197
C          -2.02842325      1.52902081      0.10568128
C          -1.98535351      0.18912235      0.50579220
C          -3.17122646     -0.55250596      0.64235988
C          -4.38388676      0.06234452      0.35585273
C          -4.42580348      1.42093630     -0.06017343
H          -3.28930149      3.19671530     -0.49948198
H          -1.09977949      2.10655737      0.02272442
H          -3.12066264     -1.58500291      0.98892659
O          -5.60901118      2.04931498     -0.35396235
H          -6.37569911      1.42863937     -0.18759745
O          -5.63368236     -0.53698185      0.37571475
C          -5.80755302     -1.63407161      1.30729949
H          -6.89009296     -1.80534744      1.25623536
H          -5.25301253     -2.50891794      0.95458283
H          -5.49759274     -1.33786734      2.31365028
C          -0.64738805     -0.46329767      0.79521595
H          -0.04674560      0.16130519      1.51016545
C           0.13851001     -0.66008272     -0.52493724
H           0.26510367      0.31474132     -1.05430709
C          -0.45929668     -1.71517866     -1.47706089
H           0.31359704     -2.10107568     -2.17263023
H          -0.91812681     -2.56462083     -0.93273651
O          -0.85701491     -1.67386977      1.52415099
H          -0.74700468     -2.48231819      0.95186855
O          -1.40983500     -1.09931100     -2.34285694
H          -2.19917727     -0.80008156     -1.83480409
O           1.44046289     -1.23435062     -0.21121128
C           2.53143621     -0.42144155      0.01848464
C           2.52384829      0.96436737      0.33716952
C           3.74285414     -1.12000989     -0.04013818
C           3.72842955      1.62057205      0.59648646
C           4.94201420     -0.44757897      0.22170698
H           3.73999036     -2.18154092     -0.28808437
C           4.93373329      0.91089721      0.53771549
H           3.73044983      2.68185317      0.86371157
H           5.87994087     -0.99623179      0.17856811
H           5.86612621      1.42307445      0.75734166
O           1.28042841      1.55460012      0.37656455
C           1.21530737      2.99380552      0.58941429
H           1.72636497      3.52262045     -0.22129865
H           0.12834181      3.16219681      0.56452248
H           1.64356457      3.26081026      1.56187891
C           6.48728170      4.39655824     -2.38259157
H           7.58803360      4.38836170     -2.48994471
H           6.07143278      3.48569776     -2.86373394
C           6.00880289      4.47832627     -0.93480453
H           4.88409481      4.60656254     -0.90759544
H           6.18228662      3.50042109     -0.42465647
C           6.26304990      5.37536791      1.33116720
H           6.52237130      6.20150519      1.99048894
H           5.01157717      5.31676815      1.41050398
H           6.62091921      4.43472818      1.74203095
C           6.08959247      6.93782123     -0.55581807
H           6.54653526      7.77035914     -0.00078517
H           6.25180804      7.08812284     -1.64065466
H           4.99042361      6.99934908     -0.37730206
C           8.13530368      5.59987907     -0.23781009
H           8.59215533      6.31848300      0.46537717
H           8.55774740      4.60821425     -0.00518841
H           8.45565653      5.88599509     -1.25390785
N           6.62657384      5.59900104     -0.09879671
O           6.08421232      5.55410330     -3.12920656
H           5.07229620      5.52662321     -3.31380699
Cl          3.38879182      5.28735135      1.00036948
C           1.51060752     -3.58931778      2.19710171
H           1.23215757     -4.35353925      2.92989817
H           2.55361248     -3.29989163      2.38319460
H           0.89553367     -2.68898712      2.41444903
C           1.29688693     -4.02011200      0.76041615
H           1.61847933     -3.22928473      0.02273078
C           2.01021449     -5.34724789      0.49003418
O          -0.09059383     -4.18608413      0.45558234
H          -0.48892967     -4.91281575      0.99540922
O           3.27254533     -5.10015751      0.01024876
H           3.78695249     -5.93056824     -0.17329683
O           1.62040833     -6.47837819      0.64541452
C           3.67561089      5.90261113     -7.80359724
H           2.87909957      6.32685039     -7.17636976
H           4.39503516      6.70623584     -8.01056523
H           3.21380232      5.62405151     -8.76371506
C           4.34085104      4.69314540     -7.17072732
H           5.18670758      4.28970607     -7.78449301
C           4.82459363      5.05279619     -5.75720280
O           3.46874772      3.58165940     -7.06230497
H           2.65350379      3.81078660     -6.54907396
O           6.15778633      5.26107751     -5.70976354
H           6.48525637      5.47505704     -4.73627454
O           4.14673968      5.14646399     -4.74395102
          89
 Energy =     -0.95475086 a.u.  #Cluster:   35
C          -3.94697955      1.49675517      0.96181218
C          -2.71987119      0.83654968      1.02773170
C          -2.57153964     -0.46238139      0.50784931
C          -3.65791041     -1.11739544     -0.08980506
C          -4.88711958     -0.46652204     -0.14552702
C          -5.03605065      0.84098646      0.37434915
H          -4.07327663      2.49967743      1.37128835
H          -1.87163430      1.32309519      1.53325824
H          -3.54236633     -2.12693184     -0.48514273
O          -6.24529166      1.48129328      0.34220353
H          -6.92358514      0.89157563     -0.10551274
O          -6.06397492     -1.05923957     -0.59945752
C          -6.03850481     -1.45453081     -1.99658755
H          -7.05737370     -1.82910177     -2.14950008
H          -5.83112860     -0.58890709     -2.63217123
H          -5.29985574     -2.24572544     -2.14992089
C          -1.24595955     -1.15837131      0.65191789
H          -0.69367573     -0.79938122      1.57182140
C          -0.33904118     -1.01785914     -0.59437093
H           0.09250534      0.00653283     -0.66675909
C          -0.97644948     -1.44559835     -1.92866935
H          -0.19757149     -1.76164623     -2.65163853
H          -1.71105336     -2.25880045     -1.79959154
O          -1.52737235     -2.56516354      0.87196698
H          -0.69210107     -3.07234057      0.69187733
O          -1.58960613     -0.32385908     -2.56639569
H          -2.32779622      0.02067325     -2.01592052
O           0.69753939     -2.03034976     -0.41116594
C           1.95316861     -1.63858262      0.02902207
C           2.23817962     -0.54677295      0.88944507
C           2.97725034     -2.48701432     -0.40248829
C           3.54895088     -0.34659154      1.33445264
C           4.28390859     -2.27003703      0.04660167
H           2.73997227     -3.31198304     -1.07227255
C           4.56481145     -1.21025343      0.91012604
H           3.77842056      0.47826497      2.00581916
H           5.08394852     -2.93245926     -0.28760299
H           5.58417946     -1.04867484      1.25726434
O           1.18235824      0.28769433      1.17448490
C           1.24698406      1.05276589      2.41210119
H           0.27509841      1.57348360      2.40134242
H           1.27230461      0.36910373      3.26993266
H           2.08471291      1.74790836      2.39119545
C          -4.17663873     -2.67926437      6.26352912
H          -3.50959149     -1.78542500      6.22420115
H          -5.08610959     -2.42489355      6.83490493
C          -4.53023239     -3.23504379      4.87064755
H          -4.35128673     -4.33628870      4.87440911
H          -5.61232058     -3.09167514      4.65643095
C          -4.05265347     -3.31741911      2.45069028
H          -3.34072578     -2.99469617      1.64374192
H          -3.94734017     -4.40790513      2.53963916
H          -5.06609441     -3.08027791      2.09302588
C          -2.23633015     -2.75593992      4.00133533
H          -1.64393347     -2.35395259      3.14031353
H          -1.89579228     -2.13851544      4.86401968
H          -1.95412482     -3.79956881      4.18203631
C          -4.09576834     -1.15006556      3.61442889
H          -3.49430300     -0.65176193      2.81332275
H          -5.15857875     -1.00760180      3.39046295
H          -3.81414479     -0.56180453      4.51482628
N          -3.71634835     -2.60329690      3.74260482
O          -3.38849276     -3.63423109      6.97006353
H          -3.94717285     -4.33684782      7.35978887
Cl         -1.38289054      0.20440814      3.94582326
C           9.38446443     -4.58685383     -1.05098642
H           9.99703741     -4.80618238     -1.93786479
H           9.67917021     -3.59991265     -0.67355777
H           9.67521102     -5.32892526     -0.29063446
C           7.89716474     -4.68358218     -1.33726916
H           7.26427608     -4.55174779     -0.42086466
C           7.51105526     -3.62037016     -2.39093495
O           7.50030127     -5.93646192     -1.84044820
H           8.16652819     -6.29021688     -2.51335065
O           6.70102115     -2.68570765     -1.82525297
H           6.39940510     -1.97157021     -2.45868900
O           7.80641046     -3.52424365     -3.56810439
C          10.30605830     -7.76730364     -6.56249601
H           9.67818033     -8.52292469     -6.07176454
H           9.67187263     -7.22597744     -7.27820426
H          11.06545392     -8.31093865     -7.14384926
C          10.97240883     -6.82480224     -5.57489094
H          11.57181546     -6.02249315     -6.07430439
C           9.90437380     -6.21434462     -4.64787397
O          11.92938556     -7.48100011     -4.75851956
H          11.51240386     -8.21060595     -4.23737427
O           9.52873336     -4.99723172     -5.06887016
H           8.81623284     -4.53055249     -4.48132493
O           9.45195454     -6.73750290     -3.64465429
          89
 Energy =     -0.95416325 a.u.  #Cluster:   36
C          -3.95292858      2.33532897      0.80835129
C          -2.69536641      1.92645616      1.26399891
C          -2.38425861      0.56585655      1.37468688
C          -3.33479516     -0.41842807      1.05554712
C          -4.58922666     -0.01614402      0.61352329
C          -4.90325194      1.36440694      0.48689412
H          -4.20837451      3.39123800      0.71990038
H          -1.95545880      2.68380121      1.56196170
H          -3.09081692     -1.47100124      1.17857808
O          -6.13358621      1.78524980      0.05208275
H          -6.72944848      0.99760325     -0.10423131
O          -5.62696018     -0.84649778      0.21645874
C          -5.66785966     -2.16096242      0.82496308
H          -6.65589405     -2.52495023      0.51658236
H          -4.87125358     -2.78318622      0.40696684
H          -5.59380336     -2.08623204      1.91371494
C          -1.01609235      0.17534008      1.87311102
H          -0.78264295      0.72196340      2.83373060
C           0.09787989      0.42204481      0.83072392
H           0.53362306      1.45153282      0.96979031
C          -0.26983902      0.18822953     -0.64182836
H           0.57948837     -0.25800842     -1.19680329
H          -1.16512392     -0.44391486     -0.77417248
O          -0.97697651     -1.20101450      2.30517706
H          -0.78810198     -1.80322608      1.55018927
O          -0.46347571      1.44351815     -1.29500951
H          -1.26587537      1.89224307     -0.93856573
O           1.06109300     -0.61502814      1.21197337
C           2.38089868     -0.46268101      0.83837618
C           3.10684098      0.76097831      0.85463772
C           3.03056930     -1.65723458      0.51728673
C           4.46052402      0.77141195      0.51154623
C           4.39334188     -1.63600933      0.19810626
H           2.46599382     -2.58888089      0.51650258
C           5.09770951     -0.43274861      0.18571881
H           5.01754102      1.70452453      0.49805544
H           4.89320109     -2.57050112     -0.06456117
H           6.15249590     -0.42110417     -0.08137114
O           2.39627141      1.84780984      1.30292353
C           2.84167751      3.17153356      0.90737742
H           2.89842481      3.24348312     -0.18063216
H           2.01294685      3.78790521      1.30960966
H           3.78509064      3.41440291      1.39520354
C           0.44334775     -0.08825080      5.04410476
H          -0.44720279     -0.41918516      5.61430730
H           0.14883696      0.73832290      4.35867182
C           1.58692413      0.26306222      5.99971619
H           1.17611996      0.61090242      6.97178458
H           2.16126244     -0.68382138      6.20020360
C           3.78920932      1.28533184      6.37142256
H           4.53257584      2.03486177      6.05635293
H           3.52515031      1.49948237      7.41851153
H           4.27916738      0.29148156      6.33012241
C           1.95337924      2.67617827      5.51046503
H           2.66825640      3.47989044      5.32504746
H           1.16810786      2.83186464      4.57902289
H           1.38321594      2.88492824      6.41369242
C           2.99585256      0.98477173      4.06619283
H           3.84791968      1.59631282      3.74051751
H           3.25074306     -0.08460468      3.96457808
H           2.17250942      1.19904730      3.33441215
N           2.56369774      1.31774323      5.47330566
O           0.90410294     -1.21713008      4.28788773
H           0.44311108     -1.23504435      3.38374891
Cl          0.26307718      3.02059609      3.12475006
C           8.07530622     -3.75852179     -0.37112514
H           8.76401456     -3.70418858     -1.22512455
H           7.61942144     -2.76663842     -0.25257795
H           8.69107676     -3.94682964      0.52116724
C           7.02899697     -4.84950426     -0.52992226
H           6.30165195     -4.87913689      0.32093009
C           6.29763289     -4.66160581     -1.86973785
O           7.59397962     -6.14962005     -0.50738210
H           8.24400265     -6.27335368     -1.24159203
O           5.11776332     -3.99737360     -1.65182839
H           4.59720162     -3.82703213     -2.48496508
O           6.62865550     -4.99700313     -2.97836742
C           4.50369242     -2.88296576      3.47697473
H           5.43847764     -3.34729046      3.81007329
H           4.05099618     -3.53838562      2.71647311
H           4.77004760     -1.94504053      2.96434111
C           3.53596003     -2.61620297      4.61217942
H           2.59719266     -2.07491808      4.27329289
C           3.18485449     -3.91497794      5.33937671
O           4.09567584     -1.72238849      5.58025719
H           4.79606138     -2.17746056      6.10924610
O           2.26787244     -4.64366026      4.64002401
H           2.00496953     -5.48589575      5.10585660
O           3.63232225     -4.31087548      6.39147845
          89
 Energy =     -0.95212569 a.u.  #Cluster:   37
C          -3.86985794      2.43769721     -0.69246951
C          -2.53955955      2.29656733     -0.27100092
C          -2.18464490      1.31291822      0.65463116
C          -3.15377043      0.44381797      1.19279800
C          -4.47167346      0.57276696      0.77714744
C          -4.83394871      1.58277524     -0.16674499
H          -4.15999511      3.20518202     -1.40647913
H          -1.78353315      2.96641483     -0.68028208
H          -2.86655469     -0.30104571      1.94114692
O          -6.13000516      1.72433087     -0.58402526
H          -6.72111863      1.09965818     -0.05893679
O          -5.52830597     -0.23268297      1.12572397
C          -5.50193194     -0.79478021      2.47296917
H          -6.47937291     -1.28162385      2.53554331
H          -4.68365098     -1.51434949      2.56923738
H          -5.40309127      0.01912417      3.21190733
C          -0.73563664      1.17545100      1.04061314
H          -0.23854126      2.17534936      1.12326860
C           0.06076751      0.28483422      0.05433656
H           0.38114759      0.86559257     -0.84155397
C          -0.62169669     -1.03512394     -0.34818618
H           0.12624428     -1.76021609     -0.72487466
H          -1.19047421     -1.48308559      0.48603059
O          -0.66617668      0.60423031      2.36885467
H           0.17953706      0.07693041      2.43250005
O          -1.47631484     -0.81264915     -1.47305488
H          -2.32042988     -0.38744352     -1.18274369
O           1.22080707     -0.17665365      0.82497721
C           2.45347227      0.35165615      0.46698092
C           2.81594423      1.70637111      0.69027386
C           3.39121268     -0.55424056     -0.03157832
C           4.12376241      2.12416262      0.42763405
C           4.69756773     -0.12373114     -0.29368336
H           3.09143726     -1.58862960     -0.20710899
C           5.05851060      1.20378250     -0.06072267
H           4.42082490      3.15403709      0.63079656
H           5.42977172     -0.83118154     -0.68190084
H           6.08130950      1.53012231     -0.25089044
O           1.82059028      2.51145757      1.19574061
C           2.02306419      3.94758835      1.11979023
H           2.18196912      4.25587949      0.07954019
H           1.07674406      4.33188707      1.51540676
H           2.87237973      4.24941261      1.74012155
C          -3.14914827      1.96645497      4.20545068
H          -3.23368073      2.97279698      3.75966714
H          -2.57127579      1.29846921      3.52963989
C          -2.49242416      2.03166186      5.61982188
H          -2.56390069      3.05643239      6.02840432
H          -3.11775684      1.37514544      6.28422889
C          -0.52683482      1.72588038      7.07723848
H           0.50657913      1.35485736      7.17971117
H          -0.53997560      2.78275840      7.38893820
H          -1.15076445      1.15835337      7.79508946
C          -0.19886492      2.37419924      4.71912719
H           0.87668613      2.18202473      4.84986495
H          -0.43652740      2.10543356      3.65396142
H          -0.37969878      3.45224087      4.83630628
C          -0.94529625      0.09343034      5.28851353
H           0.09283995     -0.25236503      5.22485864
H          -1.50249781     -0.55474805      6.00094011
H          -1.44502819     -0.10031353      4.30314325
N          -1.04621211      1.55262993      5.66287219
O          -4.45053344      1.49986476      4.36464160
H          -4.40733872      0.40462234      4.69790519
Cl         -3.83350763     -1.06515444      5.18457363
C           7.12066976      6.62060895     -0.46787347
H           6.82270590      6.58557800      0.58801856
H           7.83987455      5.80725280     -0.63597885
H           7.66256112      7.56793128     -0.61463489
C           5.93970576      6.53741238     -1.41986173
H           6.24947220      6.50704475     -2.49610842
C           5.08020734      5.31299400     -1.06123067
O           5.11076880      7.68604708     -1.35949555
H           4.76834887      7.83546086     -0.44521605
O           5.37774102      4.26613920     -1.88012194
H           4.83987809      3.44030480     -1.69153513
O           4.24606040      5.20764655     -0.18947118
C          -1.22352696      2.28727043     -3.63562984
H          -0.83137943      3.09777238     -4.26015144
H          -2.18009516      1.96198950     -4.07141042
H          -1.45124308      2.71529954     -2.64657290
C          -0.26006124      1.12290083     -3.49552466
H          -0.69295070      0.26775111     -2.88818153
C           0.18456684      0.64174135     -4.87987890
O           0.90397536      1.48014780     -2.75597508
H           1.44590896      2.14624138     -3.23845355
O          -0.71072526     -0.26551444     -5.37707076
H          -0.46204303     -0.60734383     -6.27811346
O           1.15609836      0.96741298     -5.52085393
          89
 Energy =     -0.95048602 a.u.  #Cluster:   38
C          -4.70158455      0.40028891     -0.75241252
C          -3.42311007      0.54642606     -0.21311888
C          -2.97646060     -0.30410665      0.80501409
C          -3.81715741     -1.30096416      1.32444790
C          -5.10641360     -1.42684149      0.81211970
C          -5.55094131     -0.57082478     -0.22680359
H          -5.01561235      1.06269806     -1.56426761
H          -2.78762462      1.35956627     -0.59938998
H          -3.44987830     -1.94259873      2.12779333
O          -6.83857406     -0.64854761     -0.73528824
H          -7.30586653     -1.43515857     -0.33751017
O          -6.05379657     -2.36766279      1.18030009
C          -5.86210891     -3.01937013      2.46087163
H          -6.78296682     -3.60781920      2.55588993
H          -4.98133541     -3.66837385      2.41914689
H          -5.77917229     -2.27540137      3.25886660
C          -1.56428376     -0.13906722      1.30814566
H          -1.38832422      0.89979238      1.69069116
C          -0.54213791     -0.45929131      0.18600489
H          -0.72843861      0.16253556     -0.72427361
C          -0.48704637     -1.94768501     -0.18847342
H           0.49397261     -2.21813923     -0.62436946
H          -0.73087823     -2.61209119      0.65993938
O          -1.38105999     -1.05809245      2.40132836
H          -0.45160994     -0.97597449      2.72341369
O          -1.42026142     -2.16401468     -1.26907020
H          -2.34995162     -2.06345905     -0.94636670
O           0.76874315     -0.18532309      0.75294575
C           1.41663892      0.97761923      0.35705544
C           0.79605456      2.20506397     -0.00132451
C           2.80923446      0.87999158      0.41062925
C           1.58973798      3.31425331     -0.30558220
C           3.59110699      2.00266283      0.11513224
H           3.26640574     -0.07004668      0.68434186
C           2.98425460      3.20676203     -0.24286195
H           1.13471393      4.26248466     -0.58475249
H           4.67587546      1.92706306      0.16101046
H           3.59779203      4.07585901     -0.47797766
O          -0.58135659      2.19253398     -0.01293104
C          -1.27164069      3.36492200     -0.52948748
H          -0.95740218      3.58460977     -1.55207102
H          -2.32794195      3.02244832     -0.52667404
H          -1.13326012      4.21037865      0.14508746
C         -10.23596433      2.69856900     -1.04761864
H         -10.21197775      2.26869883     -0.03069384
H         -10.06017066      3.79404037     -0.99272509
C          -9.26569577      1.98627208     -2.00835826
H          -9.20996847      0.90002531     -1.76186643
H          -9.68951515      2.04727591     -3.04066378
C          -7.00973856      1.71214782     -2.92948881
H          -5.95643625      2.11258400     -2.97226759
H          -6.93004992      0.66794193     -2.56366443
H          -7.39367432      1.70680801     -3.95782981
C          -7.28501776      2.51845165     -0.60895116
H          -6.19949346      2.88539631     -0.61967078
H          -7.81350926      3.17551534      0.08923108
H          -7.25493515      1.49037910     -0.20752128
C          -7.85616607      3.98466303     -2.50843437
H          -6.80838454      4.40265099     -2.47803227
H          -8.19865778      4.05342592     -3.55105609
H          -8.47776794      4.64545875     -1.88630611
N          -7.85290698      2.56099426     -2.00301589
O         -11.54945524      2.61751228     -1.59616279
H         -11.93309317      1.72360698     -1.46721324
Cl         -4.57078474      3.69439050     -1.76149463
C           0.59461459     -6.03196036     -4.46838923
H           1.20452964     -5.28637470     -4.99881870
H           0.94369969     -6.06929142     -3.42604000
H           0.81965122     -7.00829692     -4.92529079
C          -0.88708625     -5.72355720     -4.54207120
H          -1.52205607     -6.56675915     -4.17748416
C          -1.21870658     -4.41162712     -3.82040542
O          -1.28953494     -5.55837115     -5.92066193
H          -1.43768862     -4.58656839     -6.12463840
O          -1.05366048     -4.48851790     -2.49101027
H          -1.22718068     -3.56863457     -2.00379020
O          -1.59377187     -3.41329171     -4.40158003
C           1.74387625     -7.34780508    -10.37069314
H           0.96571073     -8.07034863    -10.64799591
H           1.35778698     -6.34425821    -10.59457081
H           2.60242593     -7.52971605    -11.03295911
C           2.16542916     -7.47148050     -8.91502392
H           2.92030266     -6.70178628     -8.61957807
C           0.92736959     -7.40910794     -8.00571829
O           2.84067275     -8.69694757     -8.65997385
H           2.23266852     -9.46629719     -8.78149785
O           0.70334226     -6.14163052     -7.59370800
H          -0.13090546     -6.04712395     -6.96861960
O           0.22386763     -8.33498311     -7.66903386
          89
 Energy =     -0.95047249 a.u.  #Cluster:   39
C          -3.03210475      2.16009092     -1.09687065
C          -1.89580607      1.65355799     -0.44679387
C          -2.01184454      0.63621097      0.50055215
C          -3.27852958      0.16829549      0.90557752
C          -4.40845957      0.69668903      0.30138461
C          -4.28274789      1.64355075     -0.76785649
H          -2.94691542      2.93471342     -1.85393238
H          -0.91583155      2.04906499     -0.71130287
H          -3.34794760     -0.58893101      1.69007810
O          -5.36454707      2.02694706     -1.49661227
H          -6.16250481      1.41194133     -1.27528761
O          -5.71359546      0.45130942      0.63915786
C          -6.02212339     -0.87085103      1.15702837
H          -7.09055579     -0.96860192      0.88087032
H          -5.43977684     -1.64578518      0.65184605
H          -5.86678652     -0.85983156      2.23754984
C          -0.76240296      0.00724488      1.06299078
H          -0.15558950      0.74850962      1.65319011
C           0.10867402     -0.59035414     -0.07334556
H           0.39400864      0.18391379     -0.81794154
C          -0.53786723     -1.81303079     -0.75000886
H           0.21097430     -2.42281753     -1.28577455
H          -1.09273198     -2.43525249     -0.02024610
O          -1.16631500     -1.04020661      1.96006365
H          -0.34756767     -1.47668667      2.32908476
O          -1.43399475     -1.36724350     -1.77926379
H          -2.18821447     -0.86509912     -1.36384401
O           1.29708168     -1.17100912      0.53672635
C           2.44326067     -0.41403820      0.65891932
C           2.54909151      1.00140297      0.68561039
C           3.58969296     -1.20207920      0.82531335
C           3.79700606      1.60252551      0.86093453
C           4.83092766     -0.58868885      1.01669827
H           3.49217854     -2.28734323      0.80240245
C           4.93406249      0.80290817      1.02866329
H           3.89806000      2.68483957      0.87187371
H           5.71895398     -1.20575573      1.15214336
H           5.90462506      1.27688402      1.17081600
O           1.35578628      1.68915827      0.53150175
C           1.39199281      3.13552951      0.61128855
H           1.95040376      3.54558744     -0.23433310
H           0.32253654      3.38636862      0.54009849
H           1.80764136      3.45945505      1.56967556
C          -5.98612087     -0.91395236     -5.05090359
H          -6.43115504     -1.70372032     -4.41840584
H          -6.10659925      0.06497031     -4.53833470
C          -4.52140173     -1.20789262     -5.45218559
H          -4.47281534     -2.19287691     -5.96511386
H          -4.21527345     -0.44969752     -6.21068558
C          -2.15893754     -1.53600538     -4.80315790
H          -1.42673273     -1.53134472     -3.96045648
H          -2.12832500     -2.54249122     -5.24742102
H          -1.80939165     -0.81117616     -5.55261733
C          -3.94078396     -2.21946180     -3.26287487
H          -3.15226589     -2.39888664     -2.51440394
H          -4.86927743     -1.83101553     -2.63484915
H          -4.23727291     -3.17470171     -3.69999916
C          -3.48764749      0.17992947     -3.66449126
H          -2.75838763      0.21341268     -2.83002566
H          -3.21693900      0.95430281     -4.39530650
H          -4.47126718      0.47296067     -3.21348587
N          -3.54473903     -1.19727122     -4.28355833
O          -6.69917260     -0.76363795     -6.27977269
H          -7.08242980     -1.61681361     -6.56691605
Cl         -6.21087654     -0.83209065     -1.91331919
C          -9.09636343     -1.99063973     -0.38019274
H          -8.92991106     -3.04343094     -0.13458531
H          -9.23390507     -1.91533317     -1.46843930
H          -8.13818305     -1.45461425     -0.18709578
C         -10.22452268     -1.34879935      0.39750854
H         -10.44145891     -0.30162436      0.06561709
C         -11.48173730     -2.22947271      0.30062202
O          -9.90756702     -1.18650946      1.77336196
H          -9.69860123     -2.05189697      2.19702107
O         -12.31851976     -1.74127725     -0.67142274
H         -13.14264856     -2.28330578     -0.78595219
O         -11.77965405     -3.21967968      0.92335020
C           0.56920107      1.48089483      3.96964188
H           1.52503288      1.68009390      4.46560752
H           0.77878708      1.30889926      2.89522481
H          -0.03636533      2.39737109      4.03750637
C          -0.19318957      0.30929238      4.56713973
H          -1.05989573     -0.01441144      3.91858302
C           0.76725251     -0.86329683      4.81574540
O          -0.82118680      0.63592950      5.79289972
H          -0.16252541      0.88130019      6.48513943
O           1.03481571     -1.51575590      3.63023779
H           1.61666558     -2.31360171      3.73655205
O           1.28564878     -1.23462469      5.83679429
          89
 Energy =     -0.94997648 a.u.  #Cluster:   40
C          -2.51900130      3.27376857      1.74405939
C          -1.29691122      2.71566573      2.06908956
C          -1.01517255      1.36356101      1.82948487
C          -2.03850058      0.53479937      1.29017002
C          -3.26652112      1.06530446      0.99215526
C          -3.57479454      2.49216895      1.18768197
H          -2.71766592      4.32742555      1.92800686
H          -0.53214877      3.35217123      2.52136151
H          -1.83722379     -0.52174365      1.11581156
O          -4.70615214      2.95268096      0.87604913
H          -4.91671497      4.38000109      1.05203053
O          -4.31555068      0.36155788      0.42684437
C          -4.40789814     -1.03975985      0.76766277
H          -5.42211971     -1.28516313      0.42561730
H          -3.66121278     -1.61257723      0.21377051
H          -4.31594814     -1.19000569      1.84559045
C           0.32813467      0.82749859      2.15675824
H           1.04493846      1.62407519      2.47765017
C           0.98293318      0.02253708      1.01300850
H           0.76432708      0.50695987      0.03203368
C           0.66627179     -1.48079495      0.96556780
H           1.57394716     -2.06695350      0.71725872
H           0.23487076     -1.85284832      1.91145615
O           0.25648697     -0.02792529      3.36008552
H          -0.68722794     -0.28605464      3.50944100
O          -0.21763200     -1.75838922     -0.11961316
H          -1.07722273     -1.26236422      0.00324327
O           2.43807769      0.02778196      1.25291436
C           3.24461732      0.90657975      0.57120979
C           2.90021202      2.21430231      0.15948016
C           4.56027408      0.44785412      0.39143038
C           3.85383957      3.05015408     -0.42753781
C           5.50956344      1.29407899     -0.18306244
H           4.81328373     -0.56666007      0.68899134
C           5.16125319      2.58713397     -0.58859337
H           3.58076216      4.05731501     -0.73904944
H           6.53262513      0.94323027     -0.31950141
H           5.92752582      3.24015513     -1.02146590
O           1.61105484      2.63961331      0.46797764
C           0.86925505      3.31660576     -0.59079283
H           0.93482460      2.74902124     -1.52123146
H          -0.16174659      3.29177812     -0.18539354
H           1.23487991      4.33797913     -0.70443788
C           1.77230675      0.60835044      6.38534585
H           1.56193785     -0.47172569      6.31372044
H           1.54343323      0.96092592      7.41590279
C           3.23075084      0.96911343      6.04857699
H           3.22524857      2.02574214      5.62831655
H           3.83761902      1.03243616      6.97506065
C           5.20093357      0.73670479      4.58910294
H           5.75242646      0.12409168      3.85731437
H           4.95328563      1.70005407      4.07265974
H           5.87032920      0.97303518      5.42917683
C           3.06583076     -0.19767741      3.83840061
H           3.57314608     -0.80221852      3.06727731
H           2.10686839     -0.69932482      4.07668391
H           2.79397456      0.76526226      3.33383084
C           4.27020760     -1.26519555      5.70101001
H           4.77576485     -1.94583870      4.99238188
H           4.93728497     -1.13092821      6.56879921
H           3.35981787     -1.78282738      6.05488665
N           3.92623252      0.05546860      5.04653535
O           0.88503624      1.35530611      5.57643134
H           0.67065318      0.87170490      4.69660359
Cl         -5.03381837      5.75410684      1.22654858
C           6.61581191      3.29673735     -3.96002961
H           6.32319182      4.32606563     -4.20552768
H           6.69753837      2.74271259     -4.90592931
H           5.78043457      2.85229384     -3.39564053
C           7.90116403      3.22712350     -3.15407849
H           8.17344322      2.18133734     -2.86468298
C           9.04103151      3.89573531     -3.93688449
O           7.77937799      3.88739376     -1.89991074
H           7.66462734      4.86354175     -2.02014402
O           9.71417700      2.95923210     -4.67484755
H          10.45949895      3.34709912     -5.21196871
O           9.35994688      5.05852105     -3.96017694
C           1.39574210      5.63570336      5.02772675
H           2.16914660      6.32686303      4.67427894
H           0.54601224      5.72105521      4.32356867
H           1.04424743      5.99948168      6.00370308
C           1.87313718      4.20433806      5.11891988
H           1.09243523      3.50040856      5.54184942
C           2.31789731      3.64152697      3.75784206
O           2.96511915      4.03922599      6.02559407
H           3.65522265      4.72230028      5.87882039
O           1.51858551      4.04745606      2.76059934
H           1.70503497      3.58951232      1.84406728
O           3.24545551      2.87160651      3.56314209
          89
 Energy =     -0.94977580 a.u.  #Cluster:   41
C          -2.56999666      2.12818426     -0.07266544
C          -1.38038334      1.67934574      0.50022870
C          -1.26293817      0.37080382      0.99545424
C          -2.35358403     -0.50943266      0.94371882
C          -3.54039718     -0.06870564      0.36626677
C          -3.65702429      1.24845076     -0.14027798
H          -2.66196634      3.14978725     -0.44874336
H          -0.53030735      2.37678209      0.56119235
H          -2.27078651     -1.50938457      1.37109349
O          -4.82120219      1.68871475     -0.71057055
H          -5.49456459      0.94417136     -0.71071522
O          -4.65367394     -0.87975573      0.15165283
C          -5.21194002     -1.47210509      1.35335189
H          -6.08393805     -2.00900553      0.96334377
H          -4.49105770     -2.15963786      1.80451675
H          -5.50440595     -0.68914900      2.05826340
C           0.04562346     -0.08874635      1.58543768
H           0.60795984      0.75312359      2.06154463
C           0.94127961     -0.76665034      0.51615266
H           1.10645861     -0.09709103     -0.36050623
C           0.43520900     -2.14152773      0.05768814
H           1.27642735     -2.82988267     -0.15969602
H          -0.25353582     -2.60500267      0.78927825
O          -0.27834366     -1.04942554      2.61065874
H           0.56041652     -1.37501207      3.01157812
O          -0.22814739     -2.00970869     -1.21067484
H          -0.96888463     -1.35662563     -1.15379026
O           2.20078790     -1.07240208      1.19453774
C           3.30262597     -0.28287344      0.93222860
C           3.27729374      1.09253622      0.56643221
C           4.52509240     -0.93111697      1.12372204
C           4.47311316      1.78692659      0.38194876
C           5.71933819     -0.21929118      0.94966623
H           4.53251425     -1.98460487      1.40242776
C           5.69282204      1.12398244      0.57801625
H           4.46348885      2.83220644      0.09023757
H           6.67014559     -0.72788014      1.09946500
H           6.62460005      1.66651219      0.43433975
O           2.01926156      1.63477482      0.44397918
C           1.87584716      2.90282750     -0.24551099
H           2.35946871      2.88077204     -1.22145633
H           0.77121167      2.95970521     -0.34224847
H           2.23563259      3.71497691      0.38946452
C          -0.44879561      6.88285678      3.85110114
H          -0.04161859      7.47476344      4.69142548
H          -1.55301246      6.82860547      3.94360306
C          -0.07413401      7.39855852      2.47945963
H          -0.30534504      6.43858720      1.65871921
H          -0.74851644      8.19344503      2.13575961
C           1.55036329      8.17540702      0.82069955
H           2.60604339      8.41840993      0.60229938
H           1.24210556      7.34760606      0.14226745
H           0.93232649      9.04894330      0.56441893
C           2.27213977      6.59218500      2.56313580
H           3.33944396      6.87653680      2.53232020
H           2.05372752      6.15619856      3.56324998
H           2.09328024      5.76814243      1.84299870
C           1.77889106      8.92939915      3.15016894
H           2.81282591      9.25098720      2.92065201
H           1.11212826      9.79447415      3.00775184
H           1.74494985      8.64713131      4.21628224
N           1.36707840      7.76646648      2.26971993
O           0.08634412      5.57541800      4.09734941
H          -0.15329838      4.96042524      3.35266485
Cl         -0.19654711      5.16475051      0.63514589
C           5.47358495      5.42499410      1.07053176
H           4.42070700      5.55474825      0.78195189
H           6.05921087      5.23971079      0.16015767
H           5.51065934      4.51051941      1.69034542
C           6.01602814      6.60377121      1.85886661
H           7.12306291      6.55968935      1.98841651
C           5.61761618      7.92977596      1.18409140
O           5.36384053      6.56236752      3.12881339
H           5.84414516      7.10306188      3.79409701
O           6.62676766      8.33550306      0.35667156
H           6.42755661      9.17854560     -0.13719945
O           4.61250958      8.59193278      1.30103048
C          -3.51453681     -3.46519831     -1.21141979
H          -3.28166381     -2.38849382     -1.21429082
H          -4.59272539     -3.54652638     -1.39599404
H          -3.32249879     -3.82925533     -0.19355141
C          -2.70272510     -4.26104880     -2.22032438
H          -3.06360771     -5.31541002     -2.32482980
C          -2.74947010     -3.54413809     -3.58303843
O          -1.35238150     -4.41831515     -1.84434916
H          -0.90830535     -3.52209995     -1.66053378
O          -3.38663126     -4.35598385     -4.49476094
H          -3.43692604     -3.95803367     -5.40241939
O          -2.34392358     -2.46055478     -3.92053000
          89
 Energy =     -0.94792257 a.u.  #Cluster:   42
C          -2.12816080      1.34823073      0.52316020
C          -0.73887863      1.25860699      0.38419668
C          -0.01256234      0.26420281      1.05158351
C          -0.67265522     -0.67446085      1.86491306
C          -2.05252541     -0.59513665      1.99679353
C          -2.78518522      0.42118260      1.33623102
H          -2.69937987      2.11616692      0.00209532
H          -0.22862905      1.96781531     -0.29721269
H          -0.10725204     -1.44918900      2.37963930
O          -4.14302248      0.51792559      1.48963020
H          -4.45682956     -0.19227276      2.12782303
O          -2.79843330     -1.42287497      2.83825176
C          -2.82546605     -2.81373213      2.42664506
H          -3.46605102     -3.26973597      3.19055738
H          -3.26072156     -2.90197749      1.42781865
H          -1.81800087     -3.23618974      2.45587922
C           1.49283238      0.16666983      0.98754555
H           1.94145814      0.58651026      1.92288491
C           2.15091963      0.81643503     -0.24143362
H           2.24942306      1.92240714     -0.08474158
C           1.52949643      0.54937718     -1.62959676
H           2.32539162      0.26376565     -2.34394425
H           0.74582054     -0.22704108     -1.60801817
O           1.89782180     -1.22116146      1.07725283
H           1.67516318     -1.68757362      0.24314306
O           0.88648231      1.72474086     -2.05327725
H           1.65934294      2.50863821     -2.25136914
O           3.49166421      0.19729611     -0.23690155
C           4.51332034      1.01452150     -0.69358792
C           4.85683965      2.22618593     -0.02928740
C           5.28455790      0.55074393     -1.75433981
C           5.99490863      2.93135664     -0.41058329
C           6.41961657      1.28024493     -2.14376661
H           4.98346742     -0.35196125     -2.28338207
C           6.76550570      2.45493479     -1.48199120
H           6.25319060      3.86915330      0.08532568
H           7.00403724      0.93818291     -2.99539145
H           7.63060067      3.03099384     -1.81101472
O           4.08261064      2.54734894      1.06997212
C           3.71349708      3.95100025      1.21644368
H           3.23278273      4.30824721      0.28713911
H           3.00372892      3.91458421      2.04684727
H           4.59361518      4.55217704      1.45016676
C           7.86892140     -1.00339984      3.89859666
H           7.96270914      0.09005421      3.68231958
H           8.16850778     -1.19352909      4.94418965
C           6.46304814     -1.55577335      3.62036265
H           6.53657758     -2.63655557      3.35537902
H           5.84390757     -1.50214627      4.54545038
C           4.42323162     -1.53999611      2.22267516
H           3.85694364     -1.05511564      1.36153472
H           4.56809066     -2.59002218      1.93561390
H           3.72810022     -1.49746707      3.07527283
C           6.56323608     -0.83748300      1.24195505
H           6.07078473     -0.25955922      0.43225192
H           7.55546827     -0.36965358      1.40985331
H           6.73239796     -1.85868641      0.87021294
C           5.43438418      0.59491782      2.91860479
H           4.70737897      1.08914892      2.22222633
H           4.99708224      0.65225892      3.92503829
H           6.34489941      1.23258592      2.89265176
N           5.72432169     -0.82530339      2.49690240
O           8.81025262     -1.59585984      2.99134738
H           9.17020461     -2.43470818      3.35261484
Cl          3.07650869      3.44628813     -2.18808734
C           4.33557042      6.57303620     -2.57666072
H           4.21629425      7.65787074     -2.65403755
H           4.95050087      6.23416553     -3.42367179
H           3.34720357      6.08937615     -2.73406219
C           4.90659788      6.11464237     -1.25487471
H           4.97272155      4.99157109     -1.19520801
C           6.28082852      6.76519630     -1.00041440
O           4.10539011      6.46509131     -0.12730395
H           3.64942856      7.32625075     -0.26833117
O           7.12474253      5.86352367     -0.36485894
H           8.01772363      6.25218963     -0.18111145
O           6.69539218      7.87692952     -1.22484417
C          10.13557820      0.10939042     -0.07159096
H           9.36539596     -0.63409840      0.17161582
H           9.82447975      0.63604790     -0.98752572
H          11.04660186     -0.45688663     -0.31940413
C          10.40538667      1.06908143      1.07687206
H          11.26113007      1.76364215      0.87188864
C           9.12001185      1.86492295      1.37348199
O          10.80161961      0.40232143      2.26025000
H          10.13959308     -0.30118923      2.51965325
O           9.05766816      2.98993376      0.62514286
H           8.18591059      3.49538283      0.71338970
O           8.23375405      1.57770178      2.15787947
          89
 Energy =     -0.94788891 a.u.  #Cluster:   43
C          -3.33610427      3.62978807      0.24921794
C          -2.12092688      2.96722189      0.46469556
C          -2.09678604      1.60126395      0.75736183
C          -3.28993148      0.86363901      0.85213017
C          -4.49917269      1.51777705      0.65018016
C          -4.52411767      2.90630444      0.33713682
H          -3.36520384      4.69668749      0.01962399
H          -1.18676610      3.53089769      0.40600487
H          -3.23896025     -0.19652342      1.09920541
O          -5.69720878      3.57938827      0.10729860
H          -6.47864398      2.96702388      0.20419054
O          -5.76374302      0.96427667      0.72870625
C          -5.84429536     -0.47392780      0.88426768
H          -6.92898547     -0.63909513      0.87889876
H          -5.36309227     -0.97454819      0.03923445
H          -5.40404221     -0.77474271      1.84009727
C          -0.76544570      0.92268383      0.96216610
H          -0.11598919      1.50497968      1.67225488
C          -0.04100730      0.71925289     -0.39114505
H           0.14098829      1.69310550     -0.90072797
C          -0.76025193     -0.26079105     -1.33552450
H          -0.04177862     -0.77434131     -2.00194859
H          -1.35954755     -1.00741066     -0.78293281
O          -1.01814927     -0.35994995      1.57646612
H          -0.17034734     -0.86706190      1.58607090
O          -1.59319342      0.47720473     -2.23449798
H          -2.34752965      0.87810080     -1.74492150
O           1.21251255      0.04144267     -0.08925553
C           2.37640049      0.79368393     -0.08056747
C           2.49843397      2.15395670      0.29547512
C           3.51415315      0.05711157     -0.43181986
C           3.76297968      2.74971729      0.34152845
C           4.77141911      0.66554591     -0.38196639
H           3.40126802     -0.98463222     -0.72518424
C           4.89276371      2.00233984      0.00527763
H           3.86203304      3.79992380      0.64805153
H           5.65627112      0.08953548     -0.64392895
H           5.87399832      2.47157636      0.04807211
O           1.32284650      2.84732754      0.51454405
C           1.33375091      3.88280233      1.54264678
H           0.87438647      4.75108165      1.04665832
H           0.72178875      3.48982487      2.36439194
H           2.33936062      4.14633547      1.88297156
C          -0.16144821      5.82031000     -1.17136775
H          -0.76924964      5.41838786     -2.00313228
H           0.04392566      5.02017186     -0.42250000
C           1.11893595      6.50720999     -1.61692476
H           0.94423473      7.57588579     -1.81807943
H           1.91868851      6.53245624     -0.61829098
C           3.21134069      6.51504186     -2.89639288
H           3.78468406      6.09208846     -3.73161168
H           3.08961513      7.59931300     -3.06753193
H           3.82005901      6.40401122     -1.96761612
C           1.10134267      5.99077526     -4.04219133
H           1.60133611      5.46948375     -4.87052675
H           0.07186156      5.60443957     -3.95298617
H           1.02175210      7.06220213     -4.32524819
C           2.08442372      4.38269853     -2.43225964
H           2.77987077      3.91193771     -3.14285906
H           2.52322075      4.27225169     -1.41001572
H           1.14390506      3.80897932     -2.43565565
N           1.85943516      5.84768606     -2.73851859
O          -1.03798698      6.78463776     -0.57854408
H          -0.62061206      7.18278423      0.21791693
Cl          3.11746248      6.33587155      0.47570375
C           3.18360187     10.86873578     -7.18117099
H           2.08782681     10.93373172     -7.13772046
H           3.58505848     11.79212865     -6.73529823
H           3.46684284     10.87507498     -8.24674006
C           3.73557437      9.63167446     -6.49661993
H           4.85608935      9.60004888     -6.49868268
C           3.19898106      9.54209648     -5.05790222
O           3.38493397      8.43016007     -7.16393170
H           2.40999205      8.36450713     -7.29709624
O           3.97740786     10.28456422     -4.21949847
H           3.65924615     10.27907851     -3.27059523
O           2.25228459      8.91659804     -4.63860657
C          -2.32006390      1.02556848      4.22666685
H          -1.99277618      0.58136394      5.17299339
H          -3.41582256      0.97462393      4.19605594
H          -1.94995576      0.36630272      3.41387219
C          -1.81232350      2.43783046      4.01696321
H          -2.22867171      2.91976331      3.09412178
C          -2.11741609      3.28826719      5.26136686
O          -0.40760108      2.47846895      3.79306302
H           0.08491146      2.05582054      4.53678284
O          -3.22649987      4.06014173      5.02291755
H          -3.47474519      4.63632080      5.79317338
O          -1.54572762      3.34005750      6.32033628
          89
 Energy =     -0.94389476 a.u.  #Cluster:   44
C          -3.38652845      2.24514055      0.37048088
C          -2.27434664      1.52394012      0.80642271
C          -2.39701366      0.19659489      1.24455311
C          -3.65442969     -0.42160896      1.25981127
C          -4.76648373      0.28323369      0.81085324
C          -4.64010490      1.61899824      0.36627502
H          -3.30123448      3.27563727      0.02750491
H          -1.28689287      2.00475333      0.80135096
H          -3.74702597     -1.43897676      1.64516836
O          -5.72246702      2.33752714     -0.07016123
H          -6.54842490      1.77406410     -0.00112757
O          -6.06747420     -0.22488835      0.82643110
C          -6.23191797     -1.44456623      0.06216656
H          -7.31832931     -1.59148005      0.08169259
H          -5.86741902     -1.31128269     -0.96142281
H          -5.70829794     -2.27057611      0.56389044
C          -1.17881843     -0.59145818      1.69812115
H          -0.55980058      0.00048745      2.41694878
C          -0.30276027     -0.96186465      0.46245160
H          -0.21956673     -0.11450191     -0.25460930
C          -0.76167563     -2.24244513     -0.25118668
H           0.04895345     -2.68109899     -0.86188636
H          -1.13771909     -2.99211431      0.47580653
O          -1.64796187     -1.74626487      2.34095000
H          -0.78916456     -2.36262825      2.88960990
O          -1.79545899     -1.95958852     -1.20442520
H          -2.49803124     -1.41601825     -0.79180501
O           0.99228128     -1.32145450      1.02372868
C           2.11900084     -0.62464462      0.64267259
C           2.19709730      0.76571810      0.35318423
C           3.28596554     -1.39460189      0.68762564
C           3.43959522      1.35524834      0.11214865
C           4.52729354     -0.78695359      0.46618092
H           3.20738137     -2.45909854      0.91348253
C           4.60191909      0.57459232      0.17678174
H           3.51558329      2.41367322     -0.11909469
H           5.43489662     -1.38680381      0.51976935
H           5.56890710      1.04319206     -0.00052586
O           0.98827028      1.42927315      0.32084629
C           1.02400380      2.87944712      0.33960876
H           1.41279345      3.26007573     -0.61155241
H          -0.04518323      3.11901871      0.45183294
H           1.60247949      3.23803598      1.19514870
C          -2.42364141     -5.63628537      4.71405350
H          -1.56884453     -5.85872277      4.04762339
H          -2.15715116     -4.76278303      5.34872585
C          -3.75451364     -5.43736388      3.94984660
H          -3.97093383     -6.34379552      3.34426675
H          -4.57286409     -5.36637184      4.70477029
C          -5.14468045     -4.08342640      2.42713104
H          -5.18467640     -3.22605287      1.71363978
H          -5.42387694     -4.99124590      1.86898905
H          -5.92195064     -3.89860688      3.18869843
C          -2.74880406     -4.36253020      1.95048697
H          -2.32046906     -3.35712868      1.62442593
H          -1.84026648     -4.90247998      2.29450559
H          -3.14518539     -4.87771954      1.06943040
C          -3.51422532     -2.96434684      3.86862588
H          -3.39148786     -2.05703278      3.21042836
H          -4.30085159     -2.77767795      4.60777168
H          -2.53093674     -3.00706045      4.39483801
N          -3.76699281     -4.20547499      3.05163756
O          -2.66927567     -6.69452768      5.63826508
H          -2.36631969     -7.55275727      5.27652383
Cl         -0.16390668     -3.57588158      3.69533832
C           2.24827670     -1.29922853      4.00794264
H           3.06128889     -1.90095905      3.58395871
H           1.77409929     -1.90773473      4.79436364
H           1.48344106     -1.21906643      3.21098120
C           2.68619401      0.06105054      4.49892118
H           1.87903289      0.61279200      5.04271019
C           3.92866151     -0.09622995      5.39581228
O           3.03395599      0.95630766      3.45141052
H           3.60685364      0.51371975      2.77553963
O           3.55855100      0.06505994      6.71244964
H           4.31208582     -0.04490611      7.34646950
O           5.07932944     -0.32538935      5.11714878
C           2.60244527      6.64044709     -4.40748199
H           1.56966865      6.92404901     -4.16798372
H           3.25141881      7.47910471     -4.11911784
H           2.66068143      6.54509809     -5.50258020
C           3.03105893      5.34349876     -3.74156322
H           4.09201506      5.06845666     -3.97471220
C           2.82216451      5.45436675     -2.22311433
O           2.30292957      4.22393471     -4.21298336
H           1.33474595      4.32218926     -4.04137951
O           3.93293951      5.99465056     -1.63480268
H           3.84497418      6.09569524     -0.64678740
O           1.86063439      5.14423179     -1.56090252
          89
 Energy =     -0.94369221 a.u.  #Cluster:   45
C          -2.80184502      2.41172641     -0.90473049
C          -1.62317488      1.80735774     -0.44981566
C          -1.67566843      0.71438126      0.42047047
C          -2.90960256      0.21102117      0.87056769
C          -4.08073613      0.80545166      0.42094536
C          -4.03001375      1.90655945     -0.47825220
H          -2.77736086      3.26292874     -1.58351857
H          -0.66022485      2.19448186     -0.78790844
H          -2.91312607     -0.62245953      1.57655980
O          -5.16934904      2.50416604     -0.95721166
H          -5.97855514      2.04244704     -0.59872542
O          -5.37451583      0.45285294      0.76704765
C          -5.54412421     -0.83117467      1.41691277
H          -6.63508052     -0.89531968      1.51027586
H          -5.14919430     -1.63160322      0.78440684
H          -5.06338634     -0.81776497      2.40073639
C          -0.39587600      0.04635742      0.85490789
H           0.36035084      0.79600572      1.20280324
C           0.19348667     -0.83771880     -0.27515185
H           0.65900726     -0.23304380     -1.09422411
C          -0.79961451     -1.87080508     -0.83226009
H          -0.27178927     -2.78248823     -1.19719411
H          -1.57000630     -2.15423436     -0.09426986
O          -0.70134133     -0.78908515      1.99087234
H           0.01253994     -1.47332285      2.07007000
O          -1.42743356     -1.34662813     -2.00696955
H          -1.96916193     -0.55563079     -1.78939230
O           1.18728629     -1.68551451      0.37961239
C           2.49977217     -1.26305548      0.47745151
C           3.01616077      0.04262329      0.22545477
C           3.35100724     -2.28446583      0.90467200
C           4.38945048      0.26873676      0.34884092
C           4.72029117     -2.02854916      1.06207782
H           2.93226111     -3.26643310      1.11974399
C           5.23402232     -0.76787348      0.76883951
H           4.80798689      1.24598487      0.11934189
H           5.37258616     -2.81872761      1.42309109
H           6.29878852     -0.57252218      0.87832208
O           2.07995686      1.01049277     -0.03895828
C           2.54478355      2.29279738     -0.54340973
H           3.18853856      2.15507773     -1.42110758
H           1.60003529      2.76630295     -0.83637672
H           3.04556298      2.83874720      0.25921984
C           1.80956306     -3.03228536     -2.83478208
H           2.07968643     -2.61673550     -1.84129449
H           1.43561427     -2.21758395     -3.48382557
C           2.95287222     -3.84431575     -3.48525830
H           3.06270133     -4.79126846     -2.90623237
H           2.64392260     -4.13672324     -4.51340305
C           5.30874334     -4.08421550     -4.13884174
H           6.30694483     -3.61825779     -4.19399302
H           5.39749145     -5.00134512     -3.53620697
H           5.03107491     -4.37242713     -5.16653902
C           4.75094243     -2.73094974     -2.16483961
H           5.74562795     -2.25943874     -2.18074598
H           4.07056501     -1.95659644     -1.72256476
H           4.76182678     -3.58476713     -1.47261745
C           4.19600452     -1.91084919     -4.40902325
H           5.14482540     -1.40566953     -4.57695377
H           3.67109492     -2.06413724     -5.34815316
H           3.52739336     -1.02225418     -3.81110615
N           4.29088945     -3.11786802     -3.55131023
O           0.78113867     -3.98635993     -2.56542878
H           0.16970556     -4.05386978     -3.35391601
Cl          2.72157992     -0.02023652     -2.76695003
C          -2.32433190     -2.07400915     -5.73224668
H          -2.68996045     -2.67580891     -6.57188820
H          -3.11547115     -1.36003537     -5.45871943
H          -1.46994949     -1.48679018     -6.10420794
C          -1.90293463     -2.90908802     -4.53898856
H          -1.51536412     -2.27901208     -3.67931792
C          -3.04675796     -3.82534751     -4.09842542
O          -0.78772577     -3.74642989     -4.86826852
H          -1.07741149     -4.53609792     -5.38778498
O          -3.98126781     -3.16030578     -3.36163209
H          -4.73075600     -3.74934531     -3.06807684
O          -3.17185987     -5.00221499     -4.35540791
C           5.40863408      7.31255624      4.25116228
H           5.47614141      6.22075312      4.34965249
H           6.42689979      7.69323154      4.09552792
H           5.05918546      7.70038145      5.22027270
C           4.46678999      7.74603029      3.14034198
H           4.43280508      8.85777058      3.01023237
C           4.87144278      7.05533449      1.82697049
O           3.11541149      7.41725853      3.41636627
H           3.00126085      6.44411863      3.54944055
O           5.58894649      7.92997890      1.05193792
H           5.87509074      7.53956011      0.18247203
O           4.64959332      5.93199584      1.44884411
          89
 Energy =     -0.93744101 a.u.  #Cluster:   46
C          -3.15769334      2.59829293     -0.32644812
C          -1.95531317      1.96112768      0.00249676
C          -1.95495566      0.78649723      0.76078990
C          -3.16049134      0.21934004      1.21013648
C          -4.35588288      0.85063505      0.89232142
C          -4.35828341      2.04396215      0.11525499
H          -3.17344604      3.51216273     -0.91837560
H          -1.01335071      2.39020989     -0.34155433
H          -3.12636715     -0.69178840      1.81255421
O          -5.51977530      2.68913287     -0.22523636
H          -6.31168720      2.18862855      0.12263837
O          -5.62800096      0.46297838      1.27012846
C          -5.77015010     -0.85908484      1.84623298
H          -6.85543045     -0.91950658      1.99983175
H          -5.42416216     -1.61981631      1.14035885
H          -5.23332571     -0.91345867      2.79878523
C          -0.63736165      0.13278128      1.09865734
H           0.04595797      0.84550936      1.62773708
C           0.05735028     -0.40760451     -0.17489684
H           0.16743289      0.39297795     -0.94119073
C          -0.61892999     -1.64571550     -0.78340718
H           0.13921992     -2.38265759     -1.13739303
H          -1.32088401     -2.13213293     -0.08313027
O          -0.91489501     -0.95478507      2.00117985
H          -0.07327975     -1.44268564      2.16931185
O          -1.30220821     -1.25365408     -1.97898362
H          -2.08499400     -0.70249197     -1.76228982
O           1.36586430     -0.87723301      0.27631901
C           2.46939981     -0.18534632     -0.18325286
C           2.58626267      1.23298215     -0.17697880
C           3.54560754     -0.97581056     -0.58993148
C           3.78007417      1.83543056     -0.57252820
C           4.74626167     -0.36239021     -0.97178453
H           3.42778084     -2.06181055     -0.60264441
C           4.85749313      1.02580856     -0.96200696
H           3.88297621      2.91451695     -0.57632764
H           5.59471303     -0.97747898     -1.28074747
H           5.79842747      1.49687833     -1.26593973
O           1.44053202      1.90147077      0.21391694
C           1.52825323      3.33568915      0.39538981
H           1.70190146      3.82624213     -0.56578130
H           0.52809493      3.57167021      0.78812099
H           2.30047952      3.58296101      1.12924678
C           6.98328217      4.89856712      0.13174412
H           6.36503079      5.76812750      0.43390520
H           6.34894808      3.99354287      0.08534624
C           7.73972002      5.18286260     -1.16404076
H           7.12089099      5.79920042     -1.84827050
H           8.63936771      5.81691447     -0.91700487
C           9.29057527      4.37454132     -2.89136091
H           9.73306003      3.48686714     -3.39968604
H           8.88315134      5.04685040     -3.65641250
H          10.12835058      4.88645519     -2.37378640
C           7.07875594      3.31428670     -2.65097763
H           7.44802905      2.50814695     -3.33022376
H           6.36961597      2.80794527     -1.96501864
H           6.53741644      4.04732626     -3.26073670
C           8.82134435      2.94531419     -0.98453700
H           9.18314296      1.84511936     -1.75768584
H           9.78265135      3.20075525     -0.56170035
H           8.15961264      2.44692211     -0.29658124
N           8.23635445      3.93054372     -1.89339243
O           7.89478963      4.75863833      1.23706222
H           8.44501597      3.93196405      1.11938424
Cl          9.36121564      0.81505660     -2.84603056
C          11.91480861      8.82338039      0.11641226
H          11.91101807      8.59294023     -0.95759482
H          11.05280296      9.47227636      0.31696257
H          12.82096173      9.41574399      0.31548214
C          11.90011901      7.57361289      0.97962279
H          11.87815666      7.79869593      2.07690328
C          10.70201381      6.69141674      0.58008071
O          13.07851317      6.79829656      0.83718780
H          13.23913147      6.55771038     -0.10763264
O           9.78830488      6.63250784      1.56688032
H           8.99601464      5.97936660      1.37624499
O          10.53472929      6.10674529     -0.47587157
C           2.30995227     -0.84811867     -3.98460242
H           3.25091508     -1.25631136     -4.37492264
H           1.94708328     -0.09834230     -4.69936288
H           2.55785487     -0.32157126     -3.04986938
C           1.26462401     -1.91775068     -3.72036451
H           0.29597212     -1.49530973     -3.32502017
C           1.01757513     -2.73372193     -4.99559968
O           1.67127868     -2.81514425     -2.69611423
H           2.46684792     -3.33281037     -2.96851583
O           0.06637365     -2.12566356     -5.77308431
H          -0.13618170     -2.63223148     -6.60515230
O           1.53800602     -3.76336294     -5.35206908
          89
 Energy =     -0.93219996 a.u.  #Cluster:   47
C          -3.19939076      2.73379037     -0.45225892
C          -2.03047644      2.07538305     -0.06195259
C          -2.06662712      0.74669170      0.38216863
C          -3.28350620      0.05019218      0.45335443
C          -4.45036791      0.70052713      0.06936946
C          -4.41295073      2.04423321     -0.38757150
H          -3.18181578      3.76415539     -0.80369337
H          -1.07533321      2.60920310     -0.09811068
H          -3.29658530     -0.98080124      0.81692257
O          -5.55094676      2.69665814     -0.77887661
H          -6.34392564      2.09083957     -0.65759289
O          -5.71048907      0.11939430      0.02161884
C          -6.09330328     -0.61483449      1.21680268
H          -7.14180587     -0.87815802      0.99610533
H          -5.47526415     -1.50970753      1.31923574
H          -6.01826822      0.02734863      2.09774715
C          -0.77866018      0.07362490      0.78531535
H          -0.22982144      0.68068927      1.55404092
C           0.12765525     -0.18119703     -0.44611266
H           0.37075120      0.76567128     -0.97796456
C          -0.43817388     -1.22926371     -1.42172291
H           0.37539447     -1.75498330     -1.95770965
H          -1.08889015     -1.96235318     -0.91000018
O          -1.12376113     -1.18760179      1.39143873
H          -0.28782385     -1.67012622      1.59669349
O          -1.16076002     -0.56696069     -2.46154350
H          -1.98028244     -0.15939282     -2.09875542
O           1.33992752     -0.82058814      0.06198148
C           2.47109815     -0.04974084      0.24652708
C           2.49741381      1.32894176      0.60750574
C           3.66567776     -0.76337108      0.13346713
C           3.71615711      1.95313598      0.87303338
C           4.88357146     -0.12342625      0.40213955
H           3.63371452     -1.81441491     -0.15120217
C           4.90592510      1.21894926      0.77384992
H           3.73518851      3.00180416      1.18193755
H           5.80985544     -0.68821855      0.32373294
H           5.85198879      1.70143610      1.00670894
O           1.26813788      1.93527992      0.66789165
C           1.20768756      3.34082401      1.03942924
H           1.52490361      3.95092324      0.18918468
H           0.13392841      3.45536143      1.26539745
H           1.81332138      3.55079507      1.92638878
C           7.63983093      5.76300329     -2.45478886
H           6.86038475      5.32333138     -3.11190393
H           7.51742557      6.85983234     -2.41458862
C           7.66018118      5.12041632     -1.05451167
H           8.06992447      4.08626484     -1.14872023
H           8.36988097      5.67366927     -0.40021561
C           6.47145540      4.51425851      1.01011116
H           5.48708569      4.47768832      1.54322774
H           6.88050540      3.49311191      0.99456571
H           7.11737154      5.15718980      1.62873875
C           5.36186381      4.17294535     -1.16402012
H           4.34679582      4.16212369     -0.69295224
H           5.21689091      4.52469840     -2.19757770
H           5.72125173      3.13197011     -1.19057997
C           5.69547376      6.43811702     -0.28764521
H           4.60402550      6.33603748      0.34590873
H           6.27667023      7.14693708      0.29565181
H           5.39038819      6.87204873     -1.23582219
N           6.28944282      5.08071263     -0.38504125
O           8.85261667      5.41084617     -3.11542813
H           9.59865798      5.96862085     -2.80753773
Cl          3.28279564      5.72051551      1.14780724
C          -1.67831430      5.57489305      2.35355763
H          -2.67835175      5.51664149      1.90437899
H          -1.58556169      6.55596430      2.83937851
H          -0.94994860      5.56505611      1.52731211
C          -1.40242128      4.43784665      3.32192668
H          -0.36948699      4.47960637      3.75480433
C          -2.46087683      4.43972034      4.43666387
O          -1.43306328      3.17033707      2.68496329
H          -2.32701201      2.97591502      2.29950693
O          -1.94337338      5.03237320      5.56089554
H          -2.58497627      5.06182291      6.31924109
O          -3.59047660      4.01780514      4.42740453
C          -6.96940859     -2.80477451     -1.83422918
H          -7.37068928     -3.82291043     -1.76163562
H          -6.52865185     -2.69125211     -2.83526158
H          -6.14191291     -2.72453812     -1.11144948
C          -8.01290674     -1.73744553     -1.55695714
H          -7.57993358     -0.70198977     -1.56905023
C          -9.17346419     -1.87477931     -2.55368421
O          -8.55836507     -1.83900578     -0.24706467
H          -8.99939542     -2.71064035     -0.10532886
O          -8.99434029     -1.00997494     -3.60017821
H          -9.72640316     -1.05244826     -4.27333455
O         -10.13340982     -2.60459275     -2.50726819
          89
 Energy =     -0.93116467 a.u.  #Cluster:   48
C          -3.29336401      2.96928975     -0.09389012
C          -2.06173507      2.39078580      0.24479304
C          -1.99841903      1.12543300      0.83563428
C          -3.17887308      0.41541886      1.12403868
C          -4.40295148      0.97823886      0.78458933
C          -4.46587773      2.26091142      0.17009534
H          -3.35477820      3.94194925     -0.58272612
H          -1.14495087      2.93525908      0.02254917
H          -3.10723442     -0.55243988      1.62592705
O          -5.65604599      2.84333568     -0.17828104
H          -6.41547178      2.22001090      0.01191520
O          -5.64799967      0.41755120      1.00364260
C          -5.68858021     -1.02755151      1.13308945
H          -6.76802484     -1.21236465      1.20470530
H          -5.25775521     -1.50745647      0.24867467
H          -5.16901080     -1.34289728      2.04317932
C          -0.65347094      0.50723944      1.12469887
H           0.07531713      1.25239735      1.54333852
C          -0.04423528     -0.16528817     -0.13589571
H           0.30192385      0.58891247     -0.87467836
C          -0.94276527     -1.23232750     -0.79030800
H          -0.33400738     -1.99373335     -1.32210082
H          -1.59213578     -1.72944350     -0.04841751
O          -0.84493724     -0.49003675      2.14599414
H          -0.04411420     -1.08032234      2.15383326
O          -1.73355514     -0.64943760     -1.82661701
H          -2.39311193     -0.02325806     -1.45331219
O           1.06915793     -0.95729116      0.37991424
C           2.35891055     -0.49013522      0.17637147
C           2.77259778      0.86870219      0.23180483
C           3.29728205     -1.50636676     -0.02269106
C           4.11920715      1.18224291      0.03034642
C           4.65061006     -1.17877477     -0.17944279
H           2.96535274     -2.54565971     -0.04196574
C           5.05359333      0.15716976     -0.16883717
H           4.45246403      2.21766505      0.04273580
H           5.38502641     -1.97125927     -0.31314029
H           6.10442925      0.41268209     -0.31027090
O           1.77574454      1.78554243      0.48061723
C           2.15665646      3.16781671      0.73097118
H           2.25605302      3.67296383     -0.23225004
H           1.30676497      3.53790667      1.32120125
H           3.07273859      3.24040050      1.32705065
C          -0.81188910      6.78112941      2.92569087
H          -0.55334191      6.17449316      2.03780602
H          -1.89368125      7.02235916      2.92227582
C          -0.32636883      6.11663162      4.20435111
H           0.90520199      5.76606356      3.96885759
H          -0.21187973      6.85192047      5.00907658
C          -0.36797116      4.29734409      5.83776238
H          -0.84233490      3.35718488      6.16387363
H           0.69652696      4.06949258      5.57799343
H          -0.36180906      4.99846247      6.68821378
C          -1.07652277      3.85442619      3.53798369
H          -1.46705686      2.88558318      3.88688200
H          -1.68309191      4.16223267      2.67355116
H          -0.03869648      3.67661252      3.16752108
C          -2.50067560      5.24930349      5.01030916
H          -3.06615547      4.37475743      5.37226675
H          -2.51337653      6.02169040      5.80231708
H          -3.04201328      5.66245242      4.13608923
N          -1.07157616      4.89793993      4.63488727
O          -0.19212347      8.06675693      2.81583166
H           0.78591000      7.96969319      2.69915536
Cl          2.22834781      5.09618095      3.35969649
C           3.88057049     -2.21752698     -3.46715384
H           4.92764527     -1.89448787     -3.42294312
H           3.37149331     -1.55114274     -4.17569725
H           3.44141697     -2.03429454     -2.47049351
C           3.71954685     -3.67820659     -3.84690550
H           2.64461296     -3.96592537     -3.97517124
C           4.53931047     -3.97463777     -5.11588291
O           4.16381520     -4.55849452     -2.82450367
H           5.11646279     -4.41060178     -2.61131458
O           3.70860088     -4.03080138     -6.20519307
H           4.18908857     -4.20513497     -7.06063676
O           5.72733911     -4.14016180     -5.23652803
C           3.17385954      8.22117948      4.98162793
H           2.88401541      7.34741388      4.37741721
H           3.15065443      7.89830590      6.02911576
H           2.39320443      8.97707468      4.84025614
C           4.53001632      8.77089849      4.57709818
H           4.72992156      9.77432803      5.03172627
C           5.63527211      7.77181131      4.95211750
O           4.60793757      9.02045573      3.18122026
H           4.53365427      8.17815932      2.66024012
O           5.84941227      7.80664137      6.31289825
H           6.54215753      7.16105682      6.61727605
O           6.27846018      7.03053137      4.25323956
          89
 Energy =     -0.92933808 a.u.  #Cluster:   49
C          -3.50770524      2.39958834     -0.09635591
C          -2.25419188      1.89463847      0.27773905
C          -2.12469198      0.57523768      0.71859736
C          -3.24403368     -0.27240275      0.80325567
C          -4.48983539      0.22352372      0.44114062
C          -4.62063348      1.56739291     -0.01710136
H          -3.62330731      3.42227596     -0.44763509
H          -1.38198394      2.54313644      0.21590531
H          -3.11201857     -1.29704192      1.16699663
O          -5.83855706      2.08350671     -0.39230174
H          -6.54380641      1.37894284     -0.31823891
O          -5.69389731     -0.44389959      0.47596448
C          -5.64503479     -1.87852788      0.71100895
H          -6.69791640     -2.17470438      0.57758146
H          -5.00743727     -2.36982735     -0.03232089
H          -5.30678736     -2.07809429      1.73060120
C          -0.75825926      0.05616395      1.09355642
H          -0.25308872      0.72469262      1.83615976
C           0.14018941     -0.10361368     -0.15901068
H           0.41578557      0.88601168     -0.59008440
C          -0.44136704     -1.01912941     -1.24614622
H           0.35328126     -1.63196985     -1.71512886
H          -1.25655256     -1.66765632     -0.87605106
O          -0.93377774     -1.22498049      1.72102640
H          -0.05085953     -1.66737971      1.78231988
O          -0.91439814     -0.15538367     -2.30194068
H          -1.86922885      0.05293274     -2.18118764
O           1.31706336     -0.82928789      0.31173978
C           2.51474456     -0.14010492      0.39500924
C           2.66299177      1.20344282      0.83277906
C           3.64047620     -0.90783324      0.08776397
C           3.93926930      1.75423167      0.95796851
C           4.91533099     -0.34581591      0.22274941
H           3.50752044     -1.93590564     -0.24729662
C           5.06079099      0.97369982      0.65156059
H           4.07251809      2.78011475      1.30589352
H           5.79264283     -0.94517028     -0.01192040
H           6.05377956      1.40857769      0.75322478
O           1.47851212      1.86381252      1.09263241
C           1.56523856      3.23123746      1.56694712
H           2.00780594      3.87357307      0.79478762
H           0.51190952      3.47360845      1.74371939
H           2.15267257      3.27908796      2.49183991
C          -8.02632962     -5.15443938     -0.36712401
H          -9.06088180     -4.81101251     -0.17548487
H          -7.89827937     -6.18342328      0.02446975
C          -7.71445959     -5.09415962     -1.89927000
H          -8.50794999     -4.53578112     -2.43050185
H          -6.77415666     -4.48179990     -2.00337062
C          -7.18563692     -6.22892060     -4.02850949
H          -6.98339599     -7.17898172     -4.55099108
H          -8.00959098     -5.71956978     -4.55538370
H          -6.28043607     -5.59490974     -4.14057834
C          -8.76915662     -7.27361214     -2.45239158
H          -8.67514053     -8.24291808     -2.96980440
H          -9.00943593     -7.48903950     -1.39317882
H          -9.63735807     -6.74468683     -2.88160607
C          -6.36102190     -7.20825060     -1.93227996
H          -6.31972885     -8.25610986     -2.25401266
H          -5.37678987     -6.72980814     -2.16214770
H          -6.40634856     -7.17259014     -0.82033848
N          -7.50384064     -6.44947963     -2.56237652
O          -7.19446840     -4.27048443      0.29262073
H          -6.07524780     -4.57869983      0.14683081
Cl         -4.68147192     -5.06910226     -0.48449050
C           2.12940539      6.96449220      2.51084174
H           1.52422958      6.07413715      2.74331527
H           2.42841354      7.41538106      3.46718878
H           1.46530192      7.68220187      2.01277402
C           3.32769245      6.61484799      1.64582780
H           3.89563304      7.51858615      1.31561099
C           4.25279216      5.64495761      2.38987236
O           2.93512262      5.86339388      0.48647291
H           2.36631256      6.41403895     -0.09555737
O           5.40837488      6.31725110      2.70938919
H           6.06490743      5.75113308      3.20134261
O           4.10064066      4.49730728      2.71959332
C           1.43740659      0.80847015     -6.99920098
H           0.84695851      1.73141140     -7.06162285
H           2.08449536      0.88771191     -6.11472274
H           2.08446122      0.77964666     -7.88638989
C           0.56307012     -0.43571168     -6.93852472
H           1.16046174     -1.37699531     -6.86938528
C          -0.41575479     -0.30631489     -5.76016426
O          -0.18263308     -0.61173038     -8.13775943
H          -0.88738401      0.07660547     -8.21475740
O           0.11659619     -0.84688626     -4.64501449
H          -0.44516534     -0.66640274     -3.78447653
O          -1.51216282      0.20865807     -5.78255633
          89
 Energy =     -0.92910878 a.u.  #Cluster:   50
C          -3.71830612      2.07827745      0.05328086
C          -2.51734513      1.36709861      0.12426746
C          -2.51316518     -0.01188687      0.37043332
C          -3.71804353     -0.71125881      0.55104257
C          -4.91425482     -0.00645128      0.49572565
C          -4.92041305      1.39311719      0.24686321
H          -3.73266726      3.15142057     -0.14804590
H          -1.57140744      1.90153868     -0.02675454
H          -3.71320770     -1.78739816      0.71165486
O          -6.08788002      2.10313754      0.17902015
H          -6.86800488      1.49926372      0.35390815
O          -6.18647092     -0.55263302      0.59411259
C          -6.33903788     -1.64875176      1.52969096
H          -7.42829100     -1.78776247      1.54183937
H          -5.83475186     -2.53915197      1.14464358
H          -5.96235806     -1.36700414      2.51670591
C          -1.19215441     -0.74131902      0.40751522
H          -0.49445256     -0.29842558      1.16916945
C          -0.52303314     -0.72921265     -0.98301839
H          -0.29441641      0.33503173     -1.27480366
C          -1.34006922     -1.43018149     -2.07651189
H          -0.90983598     -2.42163999     -2.33511974
H          -2.40609193     -1.54266370     -1.79652400
O          -1.36647648     -2.13911947      0.75664077
H          -1.74778487     -2.20858906      1.65771214
O          -1.27543829     -0.70091529     -3.30663223
H          -1.56593705      0.27231359     -3.15236844
O           0.70779033     -1.49964299     -0.89831170
C           1.90569837     -0.81152453     -0.69081659
C           2.05775768      0.45352008     -0.07371144
C           3.02912566     -1.53191537     -1.11175460
C           3.34021166      0.99186208      0.07533753
C           4.30514128     -0.99364098     -0.93138947
H           2.89390674     -2.49256750     -1.61246762
C           4.45422351      0.26955112     -0.34972552
H           3.48168807      2.02005105      0.49527827
H           5.17789437     -1.55329335     -1.25579487
H           5.44718457      0.71039439     -0.23231549
O           0.89386151      1.05220967      0.35671538
C           0.95652873      2.45933546      0.74594221
H           1.11474080      3.07368799     -0.16069546
H          -0.02616462      2.61440055      1.19705535
H           1.77154216      2.64510488      1.45803998
C          -1.64558512     -4.83119360     -0.72095114
H          -1.50857021     -3.82452031     -0.24354566
H          -1.99812025     -4.70523931     -1.75826413
C          -0.37986970     -5.71219098     -0.63523443
H          -0.42103101     -6.26529199      0.33664853
H          -0.39607967     -6.48670945     -1.43292868
C           2.07817203     -5.91416271     -0.65978976
H           3.05172195     -5.38740064     -0.71564749
H           2.07274641     -6.49284579      0.27971749
H           2.05191703     -6.62690675     -1.50255144
C           1.04298707     -3.97615915      0.44391072
H           2.01017973     -3.43689933      0.44377837
H           0.27482150     -3.14658643      0.38549542
H           0.91353832     -4.47711523      1.41257292
C           0.99842504     -4.18183933     -2.02408498
H           1.96820053     -3.61559964     -2.12908486
H           0.91378222     -4.84191967     -2.89829545
H           0.22146506     -3.37983726     -2.09127871
N           0.92578288     -4.92866830     -0.71854089
O          -2.64548788     -5.43569798      0.09116216
H          -3.11331879     -6.14988546     -0.39300180
Cl          3.44220440      4.20905106      0.05781654
C           2.19980535      3.18146307     -2.53226258
H           1.56939575      3.32318883     -1.63189309
H           2.94850615      2.42398689     -2.26391013
H           2.77422572      4.12725794     -2.60283741
C           1.43291247      2.87231156     -3.79114640
H           2.08361299      2.62374588     -4.66536119
C           0.44976733      1.71695408     -3.52062761
O           0.65844358      3.96521931     -4.26302907
H           0.20955069      4.42916805     -3.51307645
O           0.90960720      0.52720297     -3.98300295
H           0.23910775     -0.25583800     -3.79235500
O          -0.63551855      1.75484509     -2.95484735
C           3.25286557     -1.01238054     -4.42811664
H           4.32207536     -0.79450794     -4.31714241
H           2.84461939     -0.33331338     -5.19602863
H           2.76742814     -0.69831766     -3.48345040
C           2.95554409     -2.46008377     -4.74364680
H           1.86847030     -2.65919471     -4.90022978
C           3.78287053     -2.91710888     -5.95363939
O           3.29797767     -3.34068509     -3.66376616
H           4.26485907     -3.26873133     -3.45897979
O           3.05666754     -2.78060447     -7.10420893
H           3.56980107     -3.02754486     -7.92318266
O           4.90958719     -3.35005822     -5.97147596
