          85
 Energy =     -0.85340140 a.u.  #Cluster:    1
C          -1.73722905      3.74243947     -2.20963045
C          -0.62400943      3.16458265     -1.60260839
C          -0.74905642      2.40835126     -0.42132620
C          -2.00824279      2.21265150      0.14778581
C          -3.12727415      2.78794572     -0.45165554
C          -3.00089398      3.55361295     -1.62977975
H          -1.65068236      4.32347714     -3.12678032
H           0.36025932      3.29754647     -2.05922340
H          -2.13352657      1.60979975      1.05336981
O          -4.08166335      4.14821212     -2.22549204
H          -4.91536163      3.90822994     -1.72259759
O          -4.39918921      2.71084515      0.11650181
C          -4.94815245      1.36175048      0.13741241
H          -5.93460395      1.51579349      0.58622995
H          -5.02723834      0.97595442     -0.88371944
H          -4.32353709      0.70437280      0.75216575
C           0.49938728      1.86281928      0.23398416
H           1.25200566      2.70501011      0.35318694
C           1.18092380      0.75516095     -0.60227241
H           1.37834595      1.10467226     -1.64055931
C           0.55586183     -0.64883354     -0.59261834
H           1.13201074     -1.33239469     -1.24753002
H           0.51289097     -1.07696825      0.42673434
O           0.30734686      1.43426178      1.55777056
H          -0.41168596      0.53477598      1.67221946
O          -0.73709735     -0.60929450     -1.19033121
H          -1.41488662     -0.38264742     -0.50860957
O           2.44412832      0.62643790      0.14481502
C           3.56588076      0.32936325     -0.61643055
C           4.05744043      1.21393328     -1.60044446
C           4.26172113     -0.84066757     -0.29402321
C           5.22868852      0.89829340     -2.29786280
C           5.43807520     -1.13762040     -0.98647865
H           3.88318021     -1.49063911      0.50007517
C           5.90827093     -0.28390327     -1.99192191
H           5.58995686      1.57644656     -3.06885533
H           5.99062132     -2.04502686     -0.74223020
H           6.81630475     -0.53646737     -2.53820553
O           3.37147295      2.36285234     -1.98176111
C           3.36496019      3.40716972     -0.96956930
H           4.38767149      3.69922525     -0.72309878
H           2.83276523      4.21706322     -1.47863321
H           2.82254111      3.06717219     -0.06895455
C          -0.24643551      4.70533329      3.23879609
H          -0.24107090      5.02729951      2.17957392
H          -0.74144243      5.47519332      3.85927331
C          -0.86295957      3.30749394      3.39446316
H          -0.69196239      2.70371195      2.44367893
H          -0.27327150      2.72020352      4.15679756
C          -2.85246081      1.87391356      3.62595450
H          -3.87189338      1.75526128      4.01714071
H          -2.86330704      1.56650137      2.55180875
H          -2.19287103      1.13914257      4.14241153
C          -3.14363998      4.20054324      2.89539050
H          -4.22567011      4.09963801      3.08773440
H          -2.87316058      5.25967042      3.02788636
H          -2.99818799      3.95102817      1.82053169
C          -2.47832335      3.70875606      5.22535354
H          -3.53413954      3.74354049      5.53556013
H          -1.94889782      3.00059679      5.89591940
H          -2.02990092      4.70274299      5.40251264
N          -2.32838007      3.28442842      3.77950073
O           1.07933953      4.67748839      3.74052101
H           1.66195273      4.08010899      3.15286065
Cl         -1.48924729     -0.56362643      2.15373737
C           1.66185645     -0.81208924      3.72415332
H           2.31224864     -1.38984695      4.40695601
H           0.74643054     -1.39811005      3.49922925
C           1.32435480      0.58611531      4.25186251
H           1.94748968      0.89340494      5.11060497
H           1.41373485      1.34066320      3.43219981
O           2.45217748     -0.71120970      2.53059775
H           1.96495683     -0.20852095      1.81260148
O          -0.01540957      0.66444940      4.76831391
H          -0.61842959      0.06955621      4.24268528
C           4.78305031      1.81720571      2.29799321
H           4.47761252      1.63318528      1.25107155
H           5.83909602      2.14678379      2.31849156
C           3.85965152      2.83338846      2.97832154
H           3.62867048      2.52806122      4.01603718
H           4.27835840      3.85642575      2.97634264
O           4.79900000      0.59929856      3.03475252
H           3.95954073      0.07136276      2.84486329
O           2.62384902      3.00108487      2.25392348
H           2.14529112      2.11991808      2.12899578
          85
 Energy =     -0.85054707 a.u.  #Cluster:    2
C          -1.28148077      2.79022271     -0.62788966
C          -0.38663334      1.83815327     -0.12943417
C          -0.72361617      1.04143734      0.97312393
C          -1.99423539      1.14773058      1.55872490
C          -2.89827032      2.07865015      1.05970367
C          -2.52742856      2.92538164     -0.01442672
H          -1.02964139      3.41578769     -1.48342760
H           0.58472856      1.72607055     -0.61197493
H          -2.25845653      0.50278143      2.40486374
O          -3.34588094      3.95359519     -0.42887534
H          -4.26958839      3.81585827     -0.05724258
O          -4.15987614      2.32389129      1.57228248
C          -4.89497704      1.13454673      1.98407324
H          -5.90476667      1.53160970      2.13436284
H          -4.86979169      0.37389249      1.19735198
H          -4.46977521      0.74690396      2.91595016
C           0.31829812      0.14809841      1.62036078
H           1.14994324      0.82950008      1.99560502
C           0.97363137     -0.85057225      0.63022245
H           0.59355511     -0.73508344     -0.40734324
C           0.93704351     -2.33162176      1.03643885
H           1.89939815     -2.82555317      0.79712027
H           0.70318583     -2.47451572      2.11407660
O          -0.17873902     -0.47640398      2.76037331
H          -1.22415341     -1.18745868      2.56258311
O          -0.01982869     -3.00278720      0.21869311
H          -0.92905657     -2.89339388      0.59868097
O           2.41225410     -0.51573755      0.68884582
C           2.85745792      0.32695170     -0.31353172
C           3.14139506      1.68117485     -0.00943264
C           3.10649244     -0.16785511     -1.59620835
C           3.68258642      2.52563401     -0.98087923
C           3.63658254      0.68516564     -2.56993914
H           2.87990969     -1.21203701     -1.82070464
C           3.92422349      2.01742316     -2.26305287
H           3.91732394      3.56204338     -0.75251457
H           3.82409745      0.30517300     -3.57401283
H           4.33922580      2.67402748     -3.02789200
O           2.87137496      2.07026117      1.29824491
C           2.48526321      3.45921850      1.48375544
H           1.78748207      3.77827445      0.70259218
H           1.96639596      3.43707850      2.45669493
H           3.37969541      4.08471055      1.51373016
C           4.27193084      0.14546007      3.65700894
H           4.82468023     -0.09172019      4.58256027
H           4.53475380     -0.59652533      2.87228229
C           2.75463606      0.19143772      3.81937652
H           2.31390742      0.72218057      2.91540735
H           2.32734967     -0.85002459      3.75324127
C           0.81198004      1.30083770      4.88379910
H           0.30229878      1.52159386      5.83451867
H           0.74809614      2.19873466      4.24018675
H           0.19679770      0.49529122      4.37923983
C           3.07725467      2.04896964      5.46673423
H           2.59256310      2.65552125      6.24638882
H           4.07977535      1.75461640      5.82494978
H           3.25836190      2.69054492      4.58015244
C           2.26701421     -0.16423284      6.21800592
H           1.86556847      0.24970911      7.15533942
H           1.60325149     -1.03866213      5.95805778
H           3.27632419     -0.55669927      6.39678770
N           2.23816485      0.84648715      5.09495188
O           4.77806000      1.42709717      3.27111025
H           4.33650890      1.70683119      2.41841142
Cl         -2.35450203     -2.13827111      2.63903859
C          -0.12763889     -2.76778303      5.03244035
H           0.32766479     -3.33665491      5.86074654
H          -0.68097229     -3.45712900      4.36165345
C          -1.03019790     -1.63133111      5.52215081
H          -0.98638496     -0.75588318      4.83061382
H          -2.08186428     -1.94283571      5.63711888
O           0.99451205     -2.24494907      4.31476337
H           0.64833224     -1.64228887      3.53289196
O          -0.54032682     -1.08486590      6.76501416
H          -0.73208095     -1.69509510      7.50032347
C          -0.89476037      4.86070236      2.83421528
H          -0.53087961      5.47642300      3.67522566
H          -1.97163199      4.65497959      2.97331467
C          -0.61719837      5.50404833      1.46590260
H           0.07505096      6.36303202      1.54546431
H          -0.20706054      4.76800995      0.75085097
O          -0.13819736      3.64428215      2.96163450
H          -0.57820103      2.92096211      2.45192594
O          -1.81319285      6.09299276      0.95752165
H          -2.36541032      5.41843789      0.48083496
          85
 Energy =     -0.84556651 a.u.  #Cluster:    3
C          -1.44209073      2.40703584      1.34435276
C          -0.69648276      1.30253200      1.77983844
C          -0.83919724      0.06262421      1.15296024
C          -1.77057550     -0.10883644      0.11534680
C          -2.49258509      0.98565223     -0.34096271
C          -2.31761008      2.25867350      0.26865101
H          -1.34182240      3.37992700      1.82208450
H           0.00595448      1.42538290      2.60361615
H          -1.90029829     -1.09725946     -0.33745644
O          -2.91998854      3.39586901     -0.20968280
H          -3.65297955      3.18474030     -0.90170428
O          -3.37035831      0.99410092     -1.40544727
C          -3.67262981     -0.28825112     -2.01786539
H          -4.33592371      0.00997943     -2.83759078
H          -2.75264505     -0.76223748     -2.38799199
H          -4.19033583     -0.93021659     -1.29960959
C           0.05744164     -1.09651434      1.53251387
H           0.34166658     -1.07819266      2.61283987
C           1.32683256     -1.08627636      0.63121208
H           1.12396022     -0.62827628     -0.36583856
C           1.97678421     -2.46865676      0.45056810
H           3.01930322     -2.47353345      0.81570908
H           1.40121758     -3.26871413      0.95994035
O          -0.60813082     -2.34901571      1.40451036
H          -0.91380426     -2.49698454      0.46612741
O           2.06210020     -2.76169840     -0.93943095
H           1.07618712     -2.83870151     -1.34067376
O           2.28706438     -0.29814695      1.40620199
C           2.92472517      0.78946387      0.88433768
C           2.76113615      1.42915438     -0.36242717
C           3.88848647      1.29525913      1.78963027
C           3.52862459      2.55938749     -0.68557886
C           4.65039813      2.40612265      1.45141095
H           4.00801420      0.79613204      2.75133849
C           4.47564034      3.04214070      0.21251670
H           3.36339226      3.05546164     -1.64130818
H           5.38870481      2.79050557      2.15568270
H           5.07388490      3.91470277     -0.03900461
O           1.91369352      0.91181663     -1.34159650
C           0.69875834      1.69519943     -1.55276670
H           0.91366088      2.51573158     -2.24144391
H           0.00713684      0.95924978     -1.98359316
H           0.30785197      2.07538898     -0.60416055
C           1.25200371     -0.28861487     -4.37251743
H           0.17244336     -0.33039948     -4.10807248
H           1.60021352      0.75929413     -4.31589793
C           2.01716967     -1.22898566     -3.43985739
H           1.76331377     -0.97949772     -2.36346951
H           1.65436786     -2.28547061     -3.58939159
C           4.14804001     -1.99877386     -2.46210691
H           5.23458440     -2.10388644     -2.56301155
H           3.91631231     -1.53095612     -1.47908174
H           3.68883405     -3.00981446     -2.37406644
C           4.05745902      0.21008525     -3.54072581
H           5.15230731      0.24229736     -3.44336361
H           3.77439013      0.78005058     -4.44375984
H           3.62074685      0.74691543     -2.66601192
C           3.92719351     -1.83749571     -4.91406784
H           5.00023989     -1.72805692     -5.12259890
H           3.67849785     -2.91190625     -4.93287801
H           3.35352563     -1.36412193     -5.75021202
N           3.53507411     -1.20724529     -3.59653193
O           1.44969070     -0.66111778     -5.73728678
H           0.70080858     -1.26678275     -6.04598909
Cl         -0.50066326     -2.34377578     -2.09375616
C          -2.32771150      3.31653620     -3.28560654
H          -2.57953351      2.30133051     -2.89929662
H          -1.84002642      3.24070653     -4.27394033
C          -3.57709734      4.20172745     -3.33020556
H          -3.34879581      5.24201577     -3.03852468
H          -4.07407803      4.18023749     -4.31526457
O          -1.32060515      3.90736327     -2.45923888
H          -1.65299819      3.94112806     -1.51331163
O          -4.49958216      3.62048375     -2.37126054
H          -5.21511230      4.25551480     -2.16368821
C           0.05004022     -3.93548970     -4.85464150
H           0.49563250     -4.52850658     -5.67335343
H           0.84542260     -3.35262653     -4.33878483
C          -1.08531285     -3.02825677     -5.34984526
H          -1.98215431     -3.61014926     -5.62264495
H          -1.36488302     -2.24943643     -4.60992818
O          -0.48506770     -4.91566753     -3.97343917
H          -0.72608814     -4.49168080     -3.10025144
O          -0.64269765     -2.26015583     -6.48899142
H          -0.46681515     -2.84547474     -7.25263576
          85
 Energy =     -0.84368327 a.u.  #Cluster:    4
C          -4.19120473     -0.63899444      1.00165005
C          -2.89246817     -0.41411522      1.45454008
C          -2.05969611     -1.48201339      1.82818418
C          -2.52273076     -2.80258817      1.75925200
C          -3.82063525     -3.02874006      1.30659822
C          -4.66174043     -1.95658005      0.93720766
H          -4.84523220      0.18228232      0.71269699
H          -2.50789566      0.61952654      1.51781827
H          -1.86889268     -3.62483564      2.05987174
O          -5.92468157     -2.17260834      0.44419151
H          -6.17878513     -3.13208033      0.57164335
O          -4.37632867     -4.29110994      1.06341527
C          -4.18596825     -5.27167227      2.11943775
H          -4.78689699     -6.11723770      1.76431303
H          -3.12728586     -5.53676068      2.19720670
H          -4.56775305     -4.87798068      3.06629973
C          -0.66400239     -1.19438856      2.32405137
H          -0.68689406     -0.50484207      3.20525709
C           0.26980923     -0.61599233      1.22996687
H           0.02643551      0.45013759      0.98268598
C           0.37456563     -1.47377849     -0.04144115
H           1.38258724     -1.39482935     -0.49235632
H           0.14991037     -2.53718211      0.16303848
O          -0.11676749     -2.45035168      2.78270990
H           0.85832897     -2.32985223      2.91778994
O          -0.58100546     -1.05215748     -0.98866336
H          -0.51897757      0.06903412     -1.17699225
O           1.53496420     -0.63621605      1.97269724
C           2.68336563     -0.31060892      1.27110550
C           2.86291596      0.91372036      0.57208327
C           3.72407990     -1.23838008      1.35388891
C           4.08534666      1.16927049     -0.06012780
C           4.94892363     -0.95880321      0.73714422
H           3.56864179     -2.16582791      1.90143117
C           5.12034072      0.23146205      0.02939869
H           4.24164360      2.09277267     -0.61192906
H           5.76247651     -1.67699892      0.80744257
H           6.07124197      0.44003311     -0.45957141
O           1.79648862      1.77810214      0.60528770
C           1.82999682      2.89748264     -0.32177612
H           1.82287109      2.52945471     -1.35409779
H           0.87094722      3.40128805     -0.09369216
H           2.68083620      3.54631949     -0.10696511
C          -2.14168560     -3.97099131     -1.57902566
H          -1.63003956     -4.32191874     -2.50107771
H          -1.42252494     -3.98868665     -0.73435402
C          -2.77876478     -2.58863470     -1.71336188
H          -3.84179323     -2.62214115     -1.38598213
H          -2.23475655     -1.87596124     -0.99264705
C          -3.18658525     -0.53420430     -2.98906628
H          -3.11456928     -0.00004342     -3.94930426
H          -4.22610544     -0.48041487     -2.63052166
H          -2.55305761      0.04111065     -2.26609607
C          -3.58731586     -2.70661710     -4.07103956
H          -3.59352875     -2.23699457     -5.06442808
H          -3.25276475     -3.76797481     -4.20264508
H          -4.62937703     -2.77957327     -3.71319420
C          -1.27879872     -1.97489031     -3.60589959
H          -1.15260016     -1.34313048     -4.49621380
H          -0.58634115     -1.56517699     -2.80990360
H          -0.94140220     -2.99772993     -3.84773734
N          -2.70323749     -1.96551046     -3.10203466
O          -3.13040900     -4.98617499     -1.34362055
H          -3.60533462     -4.81812206     -0.47303144
Cl         -0.73054633      1.61749266     -1.64384108
C          -3.90400017     -6.44740837     -4.26435982
H          -4.17685629     -6.33550294     -5.33022864
H          -4.34415228     -7.38378537     -3.86899188
C          -2.38932778     -6.42001587     -4.03366607
H          -2.14703715     -6.30977534     -2.95250109
H          -1.89144323     -7.32038253     -4.43165202
O          -4.55921881     -5.34300702     -3.64000250
H          -4.21007138     -5.21607237     -2.70181315
O          -1.78506695     -5.24885127     -4.61138803
H          -1.83413681     -5.28822918     -5.58808951
C          -1.40770627      4.39818408      0.41986453
H          -1.65732977      5.30169560      1.00267600
H          -0.30854514      4.21890371      0.46701576
C          -2.18105531      3.15412045      0.87360830
H          -2.91285808      3.37161436      1.67182373
H          -2.68936570      2.67155997      0.01556063
O          -1.76634238      4.76080040     -0.91593704
H          -1.56560430      4.01678153     -1.53738524
O          -1.30438927      2.20811844      1.49969729
H          -0.57003210      1.93138142      0.87684820
          85
 Energy =     -0.84047151 a.u.  #Cluster:    5
C          -2.36015152      3.16770696      1.12551879
C          -1.42063660      2.14547889      1.30981889
C          -1.76296932      0.81335591      1.06045955
C          -3.06443424      0.46211388      0.66014886
C          -4.00363898      1.47141252      0.48198791
C          -3.63935945      2.83117985      0.68822909
H          -2.10415640      4.21127622      1.29776519
H          -0.41345451      2.40219927      1.63633233
H          -3.31503340     -0.58757298      0.49920080
O          -4.50145674      3.86305587      0.39316150
H          -5.41286598      3.50648378      0.19047976
O          -5.32417739      1.32289839      0.10943713
C          -5.68519271      0.06763165     -0.52844913
H          -6.72917441      0.24947520     -0.80717463
H          -5.05931875     -0.10349553     -1.41500666
H          -5.60017644     -0.75263934      0.18886122
C          -0.70495513     -0.25572000      1.19499442
H           0.15498484      0.08232517      1.82215427
C          -0.18082847     -0.68751803     -0.19914572
H          -0.34118490      0.10815717     -0.96348621
C          -0.73586394     -2.02980088     -0.70622221
H          -0.01269482     -2.84793154     -0.52600831
H          -1.70544244     -2.27457761     -0.22894839
O          -1.34534750     -1.36340428      1.85682038
H          -0.66695737     -1.97958213      2.20247119
O          -0.88072443     -1.95797564     -2.11450797
H          -1.85975033     -1.59141252     -2.38047515
O           1.24921626     -0.93371123      0.01762976
C           2.19619411     -0.21779874     -0.66868542
C           2.08904656      1.11313856     -1.16289244
C           3.40723390     -0.90966776     -0.80355065
C           3.19440246      1.72048299     -1.76225292
C           4.50856429     -0.28526892     -1.39806960
H           3.47804760     -1.92598910     -0.41582310
C           4.40264141      1.02056428     -1.87395544
H           3.13025771      2.74275199     -2.12998097
H           5.45180076     -0.82380784     -1.47849765
H           5.26386984      1.50787149     -2.32803117
O           0.84397776      1.69939669     -1.06385067
C           0.77087015      3.14634808     -1.16773135
H           1.07445097      3.47679409     -2.16321125
H          -0.31363441      3.32621852     -1.01829533
H           1.36364634      3.61109767     -0.37857531
C          -1.47537722     -1.39041815     -5.98709372
H          -1.89919007     -0.43195145     -5.61587365
H          -1.11790076     -1.25668162     -7.02483882
C          -0.39547689     -1.96022853     -5.04807521
H          -0.90488375     -2.32403751     -4.10780022
H           0.05066348     -2.86606204     -5.51215279
C           1.68928500     -1.72777656     -3.77778284
H           2.50988367     -1.07681808     -3.43205611
H           1.15942796     -2.08973188     -2.85891406
H           2.12579212     -2.59888639     -4.28500031
C           0.17263671      0.18825721     -3.88230018
H           0.97062073      0.80753750     -3.44804269
H          -0.46426238      0.85998723     -4.51136246
H          -0.48080231     -0.15886166     -3.04279776
C           1.41056171     -0.46823499     -5.89648715
H           2.27828385      0.15846807     -5.63594613
H           1.75266280     -1.28699284     -6.54575505
H           0.71961088      0.17603087     -6.49750973
N           0.70851527     -0.98289558     -4.66122365
O          -2.49516463     -2.37655010     -6.09110848
H          -3.10060164     -2.32870581     -5.30159827
Cl         -3.27955885     -0.92789527     -3.18569322
C          -2.42530067      2.57787445     -2.44229438
H          -3.17918066      2.05645023     -1.83088180
H          -1.43995685      2.09526980     -2.28136378
C          -2.78717103      2.57210820     -3.93350659
H          -3.87102824      2.63857273     -4.11705505
H          -2.27127928      3.37413430     -4.49745341
O          -2.24364381      3.93191605     -1.99949636
H          -3.02992149      4.22264327     -1.48275792
O          -2.28862458      1.34395122     -4.46401947
H          -2.85109363      0.49326042     -4.07271600
C          -1.52253458      3.55905633     -7.50911576
H          -0.68887513      3.78415208     -6.81299737
H          -1.43992541      4.19761461     -8.40548721
C          -1.55883875      2.06725564     -7.86585840
H          -2.58562409      1.72312294     -8.09141406
H          -0.89648631      1.83471715     -8.71995464
O          -2.67184887      3.96321011     -6.75556839
H          -3.49669093      3.75469515     -7.23778753
O          -1.03143997      1.28124775     -6.79988605
H          -1.63285866      1.39504123     -5.96290924
          85
 Energy =     -0.83992931 a.u.  #Cluster:    6
C          -2.40796416      2.55324082      0.09147544
C          -1.39487220      1.62442679      0.33811827
C          -1.69751289      0.28462230      0.61829063
C          -3.02950052     -0.15308531      0.65752374
C          -4.04396583      0.77108160      0.43258672
C          -3.73879445      2.12551189      0.14530999
H          -2.18534906      3.59598213     -0.12895509
H          -0.35107704      1.94760446      0.31174423
H          -3.25223282     -1.20135550      0.86464745
O          -4.72755097      3.04037323     -0.10071592
H          -5.62333547      2.59625461     -0.00523783
O          -5.40000131      0.46364357      0.37917031
C          -5.91226276     -0.23005681      1.54687476
H          -6.98762817     -0.26941094      1.33662417
H          -5.48597966     -1.23508872      1.60147699
H          -5.70345017      0.34726742      2.45324709
C          -0.57600484     -0.69506954      0.88233759
H           0.18604818     -0.25536026      1.59212860
C           0.11316668     -1.08406051     -0.44531358
H           0.34489306     -0.17748158     -1.04843719
C          -0.67400877     -2.11601747     -1.27271924
H           0.00529414     -2.74110917     -1.88152255
H          -1.31179236     -2.75671828     -0.63485609
O          -1.07059999     -1.89293985      1.48446949
H          -1.45874776     -1.65110373      2.45188655
O          -1.47042298     -1.43025393     -2.24163283
H          -2.19482111     -0.93472776     -1.79274031
O           1.35503003     -1.78789007     -0.10704194
C           2.55429704     -1.12376104     -0.27643835
C           2.84146071      0.17262224      0.23558645
C           3.56518141     -1.88171373     -0.87111149
C           4.14379916      0.67197033      0.16597226
C           4.86946831     -1.37423287     -0.92562559
H           3.32511037     -2.86167929     -1.28093026
C           5.15340422     -0.10999970     -0.41026624
H           4.38065317      1.66097844      0.55165477
H           5.65862991     -1.97057332     -1.37966665
H           6.16959316      0.28090284     -0.45665575
O           1.76595899      0.83734993      0.77514812
C           2.03075731      1.99563215      1.61382174
H           2.40952962      2.81873490      1.00668239
H           1.02288267      2.20442665      2.01880620
H           2.70149905      1.73106446      2.43515694
C           2.56408280     -5.06002745      4.41713205
H           1.74467634     -5.52886691      3.83924857
H           3.47153977     -5.69465422      4.33547794
C           2.86944011     -3.61863672      3.98789372
H           3.18405420     -3.04066862      4.89420501
H           3.74418709     -3.60795627      3.29750174
C           2.17665852     -1.49714586      2.97631721
H           1.39189642     -0.93785165      2.39100583
H           2.35318291     -0.88518128      3.88152449
H           3.08537337     -1.50454355      2.35746818
C           0.51744211     -2.81478627      4.23916126
H          -0.43063878     -2.62064764      3.66590746
H           0.35075885     -3.73640280      4.81895205
H           0.58560039     -1.96197146      4.94501879
C           1.30619134     -3.60679861      2.04761778
H           0.42069925     -3.07854041      1.56906630
H           2.09669176     -3.57262603      1.28037943
H           1.00396561     -4.64564361      2.22871547
N           1.70528957     -2.89271197      3.31514492
O           2.26678934     -5.10485242      5.80993389
H           1.38964607     -4.63283268      6.02184508
Cl          0.25704179      0.71533744      4.16767031
C          -3.03319435     -0.71943770      4.08886953
H          -3.65118118     -1.63066623      4.15884027
H          -3.34229776     -0.11575608      3.21257558
C          -3.09802533      0.12737435      5.36770256
H          -4.06717357      0.03100460      5.88791856
H          -2.27229346     -0.12782864      6.05724665
O          -1.70563148     -1.18754931      3.88084211
H          -0.93504073     -0.31095483      4.00468926
O          -3.04041764      1.52014647      5.04216611
H          -2.13909694      1.74814835      4.70041324
C          -0.79868918     -5.67937636      6.90096471
H          -0.98632308     -6.00419667      5.85761402
H          -1.76021739     -5.51562225      7.41681229
C           0.10769151     -6.67103793      7.63996568
H           0.69437501     -6.18177006      8.43843247
H          -0.48003659     -7.50526313      8.07416547
O          -0.14837965     -4.40064797      6.72542615
H          -0.08042859     -3.92345262      7.58185711
O           0.98541426     -7.33249400      6.73276399
H           1.66471185     -6.68214892      6.37820795
          85
 Energy =     -0.83876939 a.u.  #Cluster:    7
C          -2.66566205      2.30840089     -1.68288539
C          -1.68902031      1.32629779     -1.47858884
C          -1.93374606      0.20242573     -0.68584997
C          -3.14842681      0.10724039      0.02005773
C          -4.15174916      1.03961217     -0.22060638
C          -3.91470828      2.13054961     -1.09840262
H          -2.47215666      3.17993932     -2.30706663
H          -0.71313154      1.44875428     -1.97398586
H          -3.30150516     -0.70303035      0.73771804
O          -4.92607589      2.99906883     -1.46849507
H          -5.68288087      2.94987327     -0.81923798
O          -5.43831243      1.02900933      0.27308241
C          -5.76895976      0.00005603      1.24648458
H          -6.81741772      0.23013993      1.46604279
H          -5.66199094     -0.99558606      0.79361048
H          -5.13951503      0.10602339      2.13460557
C          -0.95454283     -0.96503349     -0.57424176
H          -0.62219251     -1.06266579      0.49706510
C           0.29932285     -0.80459631     -1.47921082
H           0.39301357      0.23695557     -1.88525233
C           0.44763330     -1.83439623     -2.61532971
H           1.15450147     -1.50085872     -3.39132952
H           0.76453347     -2.82238413     -2.21010358
O          -1.60044012     -2.15900646     -0.93824145
H          -2.75255789     -2.44680908     -0.41360183
O          -0.80057992     -1.98611773     -3.30095386
H          -1.46869699     -2.33406757     -2.58328435
O           1.40532718     -1.05973796     -0.54731199
C           2.57654903     -0.37045054     -0.78511514
C           2.66150147      1.03448384     -0.88661970
C           3.74632273     -1.14337152     -0.83496074
C           3.89966527      1.66612049     -1.03521192
C           4.98023620     -0.50668600     -0.97696289
H           3.66890784     -2.22857742     -0.75808584
C           5.05876189      0.88789694     -1.08179482
H           3.94697143      2.75171193     -1.11965067
H           5.89208762     -1.10308544     -1.01320899
H           6.02754233      1.37139863     -1.19906641
O           1.50374567      1.81893477     -0.93635898
C           0.96722600      2.14356966      0.38024673
H           1.68952702      2.74574406      0.93505519
H           0.06504125      2.71638234      0.13383962
H           0.72118444      1.21756792      0.91320232
C          -5.82228396      0.46279270     -3.75793903
H          -6.91431720      0.49235609     -3.95040446
H          -5.64504561      0.22964905     -2.68813622
C          -5.15183112     -0.53492526     -4.71662233
H          -5.82392112     -1.40798386     -4.87452182
H          -5.02734262     -0.02747285     -5.70519459
C          -3.29119667     -2.11619960     -5.17749530
H          -2.26236885     -2.43932197     -4.87431377
H          -3.93276966     -3.01114863     -5.15356770
H          -3.21734721     -1.75779290     -6.21489302
C          -3.91518465     -1.61898396     -2.85631384
H          -2.90585372     -1.87802000     -2.42135082
H          -4.35942993     -0.90755765     -2.13390964
H          -4.52049070     -2.54135003     -2.83605989
C          -2.78608953      0.09538624     -4.25259730
H          -1.80061373     -0.22767655     -3.82201924
H          -2.57408070      0.46017528     -5.26858045
H          -3.15036404      0.96558435     -3.67457376
N          -3.78658139     -1.03348088     -4.23909181
O          -5.30082703      1.75496557     -4.08616267
H          -5.23083515      2.31652048     -3.26101788
Cl         -4.09193890     -2.98522711     -0.17146600
C           0.32122881     -3.55445135      1.40401915
H           0.84180667     -3.80516546      2.34438044
H           0.87697530     -2.75725925      0.86610173
C           0.10066360     -4.77649823      0.50640071
H           0.96347080     -5.46598160      0.51600396
H          -0.81783734     -5.32344987      0.79503216
O          -0.93077780     -3.01738284      1.85783174
H          -1.54683216     -2.90971103      1.08521398
O          -0.01079541     -4.39662059     -0.86697252
H          -0.64819522     -3.61270618     -0.95243413
C           0.77508248      3.38623267     -3.81143667
H           1.01443930      3.92967800     -4.74317866
H          -0.19439292      3.74444654     -3.41810551
C           0.77345058      1.86236237     -3.99924683
H           1.70941367      1.48999070     -4.44505201
H           0.59315319      1.33235552     -3.02712148
O           1.82359901      3.77089484     -2.92222617
H           1.75558117      3.25267342     -2.07125549
O          -0.35347678      1.46964380     -4.79593931
H          -0.20734541      1.71928487     -5.73009034
          85
 Energy =     -0.83856405 a.u.  #Cluster:    8
C          -2.16056770      1.83119617     -1.23473327
C          -0.94757286      1.21785664     -0.90367434
C          -0.91815033      0.04520072     -0.13903448
C          -2.11408421     -0.54494800      0.30558630
C          -3.32054105      0.06397003     -0.01600814
C          -3.34669369      1.24997057     -0.78909476
H          -2.19530197      2.74089530     -1.83280595
H          -0.01253957      1.65970545     -1.26061348
H          -2.06836882     -1.46787625      0.89300223
O          -4.53695125      1.89041129     -1.07725088
H          -5.30362853      1.26892839     -0.91514878
O          -4.58749459     -0.33504254      0.39549546
C          -4.73531971     -1.72865039      0.77850481
H          -5.81971847     -1.81155802      0.92321960
H          -4.38454080     -2.38152333     -0.02674280
H          -4.19540945     -1.91255705      1.71363563
C           0.39903299     -0.58859909      0.27036794
H           0.83274299     -0.02286426      1.13465978
C           1.41982763     -0.61606872     -0.89133069
H           1.52055165      0.38516610     -1.37861714
C           1.13349768     -1.70238000     -1.94135359
H           1.54729199     -2.68619997     -1.63463582
H           0.04657329     -1.78705284     -2.13791671
O           0.06389242     -1.89147567      0.75032372
H           0.87100899     -2.50681107      0.76192331
O           1.68789625     -1.29961748     -3.19246086
H           2.65805985     -1.49411791     -3.19985142
O           2.74829403     -0.99850896     -0.40055177
C           3.43084310     -0.18324692      0.47199783
C           3.20157916      1.19670137      0.73022767
C           4.50217923     -0.82819120      1.10280896
C           4.03306245      1.89009588      1.61261117
C           5.32999598     -0.12385314      1.97987737
H           4.67189345     -1.89904035      0.90600150
C           5.09749475      1.22776156      2.23495693
H           3.86429773      2.94432639      1.81653680
H           6.14624007     -0.64241535      2.47818067
H           5.73835462      1.77380331      2.92324696
O           2.14465704      1.77659142      0.05058050
C           1.60493842      3.00659979      0.59892809
H           2.33577216      3.81354893      0.51098341
H           0.74151521      3.18332043     -0.05890946
H           1.28806968      2.85537384      1.63467784
C           8.00888670     -2.90236378      0.63053058
H           9.11244081     -2.95486870      0.63359253
H           7.65928295     -2.47896339      1.59580198
C           7.44517738     -2.03710171     -0.51410657
H           6.31942683     -2.15600744     -0.51362153
H           7.62929261     -0.96069280     -0.31250367
C           7.34459925     -1.45931476     -2.91265207
H           7.62531894     -1.72493493     -3.94399284
H           6.22666176     -1.51708178     -2.86749810
H           7.61860819     -0.40950649     -2.72947285
C           7.63255993     -3.82261162     -2.26406002
H           8.14554226     -4.15550913     -3.17400458
H           7.87998860     -4.51989559     -1.42407850
H           6.53702194     -3.95350241     -2.42805514
C           9.47333221     -2.22312082     -1.94190660
H           9.87339730     -2.40404386     -2.95394455
H           9.77408133     -1.20695677     -1.63784628
H           9.97242328     -2.93943261     -1.26128097
N           7.96907344     -2.39715185     -1.90052674
O           7.58648140     -4.24418104      0.52032851
H           6.52418705     -4.28104740      0.58385061
Cl          4.36692728     -2.92557768     -1.95709385
C          -5.13601900      3.54919626      2.01781113
H          -6.14117873      3.15463319      1.78237167
H          -5.23607898      4.45159481      2.64919810
C          -4.26321638      2.47252615      2.68020990
H          -3.31958392      2.31851467      2.12742573
H          -4.03496952      2.71403780      3.73488489
O          -4.51342533      4.05566440      0.83519433
H          -4.52298660      3.37080365      0.11829478
O          -4.99717720      1.24725303      2.77907211
H          -4.93215975      0.73495908      1.93568941
C           4.15291441     -4.74443822      1.14636500
H           4.69368276     -5.19427363      1.99709876
H           3.89640569     -5.52350984      0.40415849
C           2.90173724     -3.98606257      1.61062027
H           2.18695618     -4.64261530      2.13914099
H           3.16430520     -3.11695224      2.24131471
O           5.05775007     -3.81705571      0.55409947
H           4.70173811     -3.55205561     -0.51988193
O           2.15927376     -3.53357024      0.46992690
H           2.70172799     -2.86629491     -0.05834935
          85
 Energy =     -0.83722420 a.u.  #Cluster:    9
C          -4.18254731      2.14799827     -2.03393557
C          -2.96096501      1.92618625     -1.39348804
C          -2.84646494      0.95437155     -0.39388102
C          -3.96094880      0.19038947     -0.00794004
C          -5.17948698      0.41046488     -0.64236316
C          -5.29036178      1.38913051     -1.66431356
H          -4.25851249      2.92400087     -2.80305206
H          -2.09395120      2.53637194     -1.69284841
H          -3.85091502     -0.53735877      0.79833371
O          -6.49412695      1.63482886     -2.30205182
H          -7.14719112      0.91606939     -2.06851833
O          -6.38021223     -0.22761943     -0.37998239
C          -6.31637989     -1.44297446      0.40707945
H          -7.36385333     -1.76938288      0.40594797
H          -5.66870007     -2.17810607     -0.07995671
H          -5.97725677     -1.21222746      1.42242547
C          -1.50426363      0.73297404      0.25686047
H          -1.01743444      1.70745968      0.52346143
C          -0.55703700     -0.08721877     -0.65638561
H          -0.38994574      0.41434392     -1.63906824
C          -0.99895226     -1.54732747     -0.85991738
H          -0.12651133     -2.20201296     -1.05571248
H          -1.57363899     -1.93352096      0.00111755
O          -1.73194748      0.01377484      1.48491251
H          -0.85302200     -0.25183546      1.85128649
O          -1.77671927     -1.65351828     -2.05459526
H          -2.60498862     -1.13134527     -1.96909276
O           0.69139535     -0.22676673      0.08029270
C           1.69352635      0.71392593     -0.09012597
C           1.58242708      2.00033029     -0.68250241
C           2.91639634      0.29028559      0.44172614
C           2.69649348      2.84223403     -0.72113811
C           4.02344091      1.14454299      0.39734923
H           2.98661517     -0.70120327      0.88667798
C           3.91281477      2.40972138     -0.17962740
H           2.62604886      3.83384389     -1.16436861
H           4.97211481      0.81314701      0.81527106
H           4.77664163      3.07175565     -0.21283197
O           0.34267688      2.31299622     -1.19996261
C           0.13381230      3.66068537     -1.70053868
H           0.81990784      3.88615930     -2.51716553
H          -0.90805541      3.59450271     -2.07218224
H           0.20263078      4.38181939     -0.87409190
C          -6.28938585      3.99578061     -4.46740300
H          -5.48958067      3.30776541     -4.80879373
H          -7.17501272      3.39427552     -4.18843951
C          -5.76990730      4.89527551     -3.34899452
H          -5.00581657      4.33640686     -2.72802228
H          -5.17695370      5.74148557     -3.80601591
C          -6.34389843      6.81463581     -1.90907164
H          -7.06769569      7.29007354     -1.23647756
H          -5.38214844      6.68767690     -1.33049224
H          -6.13080649      7.50125106     -2.75547970
C          -7.00885839      4.53572101     -1.23863253
H          -7.81743921      4.85522432     -0.57056019
H          -7.19810045      3.49625982     -1.57139373
H          -6.06147145      4.50151897     -0.62717614
C          -8.14832499      5.67021941     -3.11859694
H          -8.85638041      6.24565274     -2.50364251
H          -7.99679949      6.22244713     -4.07304170
H          -8.62129354      4.70770735     -3.37924966
N          -6.82633608      5.47139446     -2.41074962
O          -6.72565991      4.80978784     -5.57014845
H          -5.96014661      4.94267726     -6.22338166
Cl         -2.72810450      5.47561333     -2.78617841
C          -4.08374345      6.71616759     -5.93639660
H          -3.10120900      7.08544525     -6.27813517
H          -3.92797287      6.12278378     -5.00069212
C          -5.10432061      7.83877553     -5.74881808
H          -4.66847119      8.68930735     -5.18550500
H          -5.50792625      8.20288817     -6.71096561
O          -4.55961588      5.72470340     -6.87073213
H          -4.67810161      6.11479297     -7.76089676
O          -6.20402049      7.43411295     -4.92580342
H          -6.59139766      6.55927801     -5.25930063
C          -2.28353784      4.89756300      0.78010624
H          -1.95256600      4.73348680      1.82115325
H          -2.35539938      3.92878716      0.25001656
C          -3.60835042      5.66713587      0.70097285
H          -4.30042653      5.37590110      1.51078563
H          -3.42902134      6.75810128      0.74153738
O          -1.20724823      5.66089839      0.21716562
H          -1.43544471      5.94200769     -0.70623431
O          -4.30724934      5.36625087     -0.49740317
H          -3.61518435      5.41106157     -1.37522454
          85
 Energy =     -0.83541370 a.u.  #Cluster:   10
C          -3.18834640      2.01932212     -1.63875792
C          -2.08390880      1.52512051     -0.93662012
C          -2.20746403      0.40826536     -0.10113793
C          -3.45774940     -0.20124879      0.09525070
C          -4.55999415      0.28613488     -0.59879393
C          -4.41819912      1.37882932     -1.49321669
H          -3.09716257      2.87961694     -2.29965553
H          -1.10909449      2.01669368     -1.06503082
H          -3.53900440     -1.04839374      0.78062279
O          -5.46968237      1.81413620     -2.27204401
H          -6.31171374      1.36353722     -1.98550427
O          -5.86454280     -0.17281792     -0.51985632
C          -6.05359676     -1.48749756      0.06046582
H          -7.11332999     -1.67790578     -0.14115042
H          -5.40562815     -2.21791227     -0.45053626
H          -5.85618674     -1.44309866      1.13535373
C          -0.98255115     -0.12761974      0.59663919
H          -0.52094495      0.66352775      1.24524436
C           0.08679359     -0.65620913     -0.38782336
H           0.44137576      0.16321279     -1.05887594
C          -0.28739259     -1.90273607     -1.20341534
H           0.61145858     -2.32257072     -1.69392752
H          -0.77614580     -2.67448634     -0.58432530
O          -1.40006128     -1.20610589      1.46169319
H          -0.59374951     -1.57512387      1.89841818
O          -1.24189643     -1.58117509     -2.22202882
H          -0.99350804     -0.64599523     -2.64778813
O           1.17424938     -1.13450869      0.46795485
C           2.33283127     -0.38265521      0.52763768
C           2.43683952      1.01817726      0.34248078
C           3.46784542     -1.13151876      0.86734817
C           3.67701662      1.65015055      0.47638837
C           4.69873469     -0.48643135      1.00932524
H           3.37194527     -2.20665040      1.00820812
C           4.80380649      0.89358129      0.81133761
H           3.75796661      2.72511221      0.33017000
H           5.58160551     -1.06812805      1.26988993
H           5.76875848      1.38574831      0.91946126
O           1.26010925      1.70314540      0.09182974
C           1.32876551      2.75839162     -0.90653374
H           1.91114784      2.44140622     -1.77677511
H           0.26340401      2.86214860     -1.18618795
H           1.72216548      3.66636868     -0.44681024
C          -3.55845967     -3.01469467     -4.11376122
H          -2.55919939     -2.82640647     -3.65058817
H          -4.32242506     -2.95456741     -3.31116617
C          -3.87793452     -2.08045040     -5.29644857
H          -3.78724442     -2.67854620     -6.23671133
H          -4.93236865     -1.73135561     -5.24412184
C          -3.27598014     -0.10696684     -6.65150701
H          -2.60169417      0.79173837     -6.73901619
H          -3.10729718     -0.71668115     -7.55029465
H          -4.31026408      0.26725292     -6.65622550
C          -1.51217159     -1.31194818     -5.42979464
H          -0.84213264     -0.45781583     -5.69554698
H          -1.16098972     -1.67534707     -4.43439992
H          -1.35148223     -2.11630784     -6.16129759
C          -3.19109647      0.04462618     -4.20260591
H          -2.65115006      1.01245291     -4.33412863
H          -4.25750289      0.28208269     -4.05373130
H          -2.80493066     -0.38992678     -3.25446055
N          -2.95613939     -0.86852236     -5.38203792
O          -3.44985304     -4.34375718     -4.62550274
H          -4.31896592     -4.79294994     -4.61344241
Cl         -0.16822908      0.83875644     -3.40608752
C          -2.89719614     -3.87533244      0.68289874
H          -2.11205258     -4.57695800      1.02035561
H          -2.61123650     -2.83346061      0.95635512
C          -3.19487775     -4.01053190     -0.81403640
H          -2.32445778     -4.37927983     -1.38475232
H          -4.05737898     -4.68115819     -0.99067848
O          -4.03616994     -4.28154553      1.45417848
H          -4.75892888     -3.63258848      1.34598855
O          -3.62164990     -2.75571762     -1.36163834
H          -2.83568678     -2.12484742     -1.44690275
C          -0.34555932      3.92863333     -5.47805517
H          -0.24701166      4.90192884     -5.99222967
H          -1.28705863      3.90186131     -4.89900717
C          -0.26393984      2.74765975     -6.45625373
H          -0.70380927      2.98904077     -7.43860235
H           0.78368802      2.41602656     -6.58829137
O           0.76699990      3.92841149     -4.57718190
H           0.75170141      3.11149621     -4.02051964
O          -1.04019677      1.64956790     -5.98134175
H          -0.67022563      1.34248456     -5.02336594
          85
 Energy =     -0.83440673 a.u.  #Cluster:   11
C          -3.02576442      2.11008279      1.03135906
C          -2.08593879      1.45843413      0.23676173
C          -1.99995306      0.05463518      0.22817572
C          -2.88803634     -0.71566035      0.98659261
C          -3.80354504     -0.06690830      1.81145746
C          -3.88529823      1.34344713      1.83531155
H          -3.10368536      3.19839278      1.05169642
H          -1.40016896      2.04668237     -0.38154943
H          -2.83884291     -1.80706697      0.94847882
O          -4.76165245      2.00098684      2.64849351
H          -5.29635934      1.33758893      3.18289678
O          -4.56632863     -0.74255899      2.76180538
C          -5.56104089     -1.65449119      2.22018046
H          -6.04746139     -2.03074311      3.12968462
H          -6.26451082     -1.10653187      1.58674848
H          -5.07408823     -2.46285540      1.66860759
C          -0.88424467     -0.62599815     -0.51564604
H           0.10040488     -0.16656978     -0.22567652
C          -1.01941214     -0.62005985     -2.05434356
H          -0.84360733      0.39656472     -2.48330367
C          -2.32860222     -1.22605384     -2.58822382
H          -2.20681104     -1.55315719     -3.64211092
H          -2.68213287     -2.07160738     -1.97379378
O          -0.84599806     -1.99359560     -0.03706812
H          -0.43188051     -2.56404867     -0.74083507
O          -3.33130094     -0.21228099     -2.66313300
H          -3.59210868      0.07641796     -1.76081088
O          -0.02165110     -1.55221220     -2.56516078
C           1.31633580     -1.29344108     -2.26817781
C           1.92079766     -0.01687120     -2.15971792
C           2.07817346     -2.45487339     -2.10018244
C           3.28432159      0.07733196     -1.86702019
C           3.44318466     -2.34658105     -1.82055986
H           1.59956279     -3.42641360     -2.20288142
C           4.03720607     -1.08817844     -1.69429408
H           3.76494715      1.05418356     -1.73957094
H           4.03896362     -3.24851391     -1.68921626
H           5.09515905     -1.01089868     -1.43931261
O           1.06851345      1.06265435     -2.28960854
C           1.67084440      2.34552238     -2.61838627
H           2.32350593      2.25384734     -3.48774401
H           0.78919737      2.95412276     -2.84610524
H           2.20853174      2.74444559     -1.73526718
C          -1.32286553     -2.57690092      3.57239691
H          -1.39878838     -2.31993686      2.49789795
H          -1.41010880     -3.67688546      3.68783667
C          -0.02740379     -2.08081288      4.23524466
H          -0.26697278     -1.84196463      5.30290774
H           0.73056360     -2.89610439      4.24999774
C           1.76708501     -0.38158895      4.39318202
H           2.24417373      0.50786148      3.90559797
H           1.47474565     -0.08796102      5.41026503
H           2.56459150     -1.14297247      4.44229385
C          -0.42584418      0.26979800      3.50437834
H           0.05804785      1.19929398      3.09714185
H          -1.26195490      0.02998867      2.82923766
H          -0.84836891      0.49910682      4.49361408
C           1.06351027     -1.20247226      2.18371015
H           1.30082561     -0.26975636      1.60595058
H           2.00938574     -1.77440231      2.19556035
H           0.30963652     -1.76946468      1.60427239
N           0.58513711     -0.85079943      3.56961346
O          -2.39957154     -2.01950336      4.33272650
H          -3.09472567     -1.61141992      3.75374031
Cl          3.91347519      0.24139347      1.82124662
C           2.08778382      3.84975246      0.88913640
H           1.49557159      4.76492368      0.71159173
H           2.65249717      3.95398927      1.83262367
C           1.20608211      2.59134092      0.90790135
H           0.14427526      2.84071083      1.08025628
H           1.31454557      2.02590649     -0.03913014
O           2.98241234      3.79289472     -0.22137716
H           3.85165794      3.32067223      0.05795824
O           1.54236559      1.74284201      1.99795157
H           2.53541833      1.34398279      1.88227851
C           6.94979403      0.98304824     -0.16902316
H           6.52572405      0.28199533      0.57821366
H           7.33124967      0.42177158     -1.04078384
C           5.93195662      2.05700648     -0.56713778
H           6.43142028      2.98908120     -0.89652367
H           5.24589581      1.69612845     -1.36239178
O           8.13499029      1.58250910      0.37188003
H           7.89492828      2.12737794      1.15453695
O           5.15124518      2.46023780      0.55724277
H           4.75992548      1.60401262      1.07037308
          85
 Energy =     -0.83213448 a.u.  #Cluster:   12
C          -3.03251692      2.37043587      0.87889230
C          -1.80617128      1.80692047      0.51401457
C          -1.53283632      0.45646487      0.76856551
C          -2.49942786     -0.35736069      1.37899610
C          -3.70902920      0.20255117      1.76999558
C          -3.98686402      1.56711798      1.51243164
H          -3.25863659      3.41799394      0.68275089
H          -1.05385579      2.43420022      0.03106246
H          -2.28063773     -1.41358511      1.56959437
O          -5.17171752      2.14082042      1.89174000
H          -5.76943299      1.44184946      2.29187787
O          -4.67782107     -0.46881349      2.51119942
C          -5.04432198     -1.77610569      1.99075247
H          -5.82323270     -2.09464160      2.69253732
H          -5.43690241     -1.67557978      0.97495456
H          -4.17873552     -2.45190195      2.01777520
C          -0.16943307     -0.13401469      0.46689297
H           0.62870585      0.63911259      0.61681161
C          -0.06084648     -0.67216413     -0.98501345
H           0.21110600      0.15959974     -1.68109602
C          -1.27589435     -1.44481804     -1.52745170
H          -0.97141777     -2.09232192     -2.37593081
H          -1.77093325     -2.05872072     -0.74983537
O           0.04402579     -1.17753236      1.40109813
H           1.07639511     -1.10314471      1.85717182
O          -2.21759271     -0.54783480     -2.11900580
H          -2.59375164      0.05239624     -1.43878143
O           0.96669629     -1.69888020     -1.06791060
C           2.24858037     -1.39927534     -0.65034408
C           2.87926746     -0.12859632     -0.69863027
C           2.96772798     -2.52116974     -0.22079326
C           4.22195056     -0.00555387     -0.33678287
C           4.30924722     -2.38187921      0.14845151
H           2.46409291     -3.48398581     -0.17003310
C           4.93120117     -1.13431219      0.08986324
H           4.72075477      0.96022031     -0.38059133
H           4.86385114     -3.25254764      0.49499824
H           5.97470807     -1.02876741      0.38744713
O           2.08001118      0.92024385     -1.12183262
C           2.55554501      2.26468251     -0.85542235
H           3.40976128      2.48855790     -1.49845415
H           1.68477840      2.86949362     -1.13005074
H           2.80616212      2.38586505      0.21216020
C           0.19451168     -2.90390256      4.11672672
H           0.06848870     -2.47296564      3.10022277
H           1.21058106     -3.34781257      4.19158611
C          -0.00262779     -1.88959358      5.25213737
H          -0.22717076     -2.45979365      6.18270405
H           0.96171294     -1.33951090      5.40398292
C          -1.41875200     -0.17137183      6.32500821
H          -2.19800890      0.60143633      6.20000070
H          -1.77801346     -0.88374592      7.08654125
H          -0.51932444      0.33020595      6.72572380
C          -2.37514751     -1.54008492      4.52033661
H          -3.19768708     -0.82025824      4.34578474
H          -2.20430404     -2.04697221      3.54142491
H          -2.71697427     -2.31970768      5.22101443
C          -0.67018487      0.16742577      4.01165472
H          -1.43490933      0.93219571      3.82004405
H           0.27443536      0.65978322      4.30721496
H          -0.43590426     -0.32115657      3.01694357
N          -1.11592979     -0.86558787      5.01008854
O          -0.72064809     -3.98294629      4.32863306
H          -1.40804295     -3.99451961      3.59740980
Cl          2.22017524     -0.85325717      3.04857973
C           4.68336223      1.93666780      2.48118576
H           5.02155291      2.97986710      2.60870203
H           5.18273750      1.48258752      1.60269614
C           4.91997922      1.08182813      3.73272009
H           5.70890734      1.50207226      4.38163853
H           3.98689011      0.94940553      4.31221605
O           3.28689944      2.08332194      2.18931738
H           2.83508259      1.19657459      2.22591351
O           5.44828135     -0.19538029      3.36305627
H           4.72946785     -0.75973144      2.97712566
C          -0.70231693     -5.19301186      0.96404409
H          -0.00830206     -5.31107686      0.11618869
H          -0.19720484     -5.49612808      1.90531861
C          -1.29474885     -3.78949966      1.05747099
H          -0.54987492     -3.01420082      1.37968516
H          -1.76833403     -3.44673320      0.11488841
O          -1.80057711     -6.11935779      0.87549255
H          -2.11852439     -6.19210207     -0.04717011
O          -2.31730536     -3.77945486      2.08519076
H          -2.83133819     -4.63336496      2.00363597
          85
 Energy =     -0.83159986 a.u.  #Cluster:   13
C          -4.63713424      2.96669957      1.55296310
C          -3.61855032      2.08896327      1.93881107
C          -3.48258602      0.83247872      1.33368106
C          -4.35791337      0.44240053      0.31087856
C          -5.40083752      1.28992541     -0.04290308
C          -5.53349461      2.56393109      0.55903630
H          -4.74127204      3.95169312      2.00375831
H          -2.92052685      2.39457319      2.72129938
H          -4.19857127     -0.51740078     -0.20647762
O          -6.56553941      3.40962480      0.22823456
H          -7.04596810      3.05165207     -0.57279622
O          -6.43445593      0.95625616     -0.91745984
C          -6.01889133      0.23370087     -2.11050232
H          -6.96199380      0.11484397     -2.65246319
H          -5.29926566      0.83472124     -2.67474639
H          -5.58741598     -0.73551013     -1.83114869
C          -2.43365623     -0.15183641      1.82835543
H          -1.89634190      0.24385604      2.73361402
C          -1.37529244     -0.42872947      0.73339369
H          -1.28410122      0.45296454      0.05187094
C          -1.48677933     -1.72406179     -0.07767803
H          -0.54226672     -1.92122398     -0.62223053
H          -1.72647234     -2.60185472      0.55243705
O          -3.10002390     -1.29553383      2.30415032
H          -3.57437224     -1.99524892      1.47822391
O          -2.49607171     -1.49892801     -1.07550830
H          -3.07572963     -2.30000922     -1.14417460
O          -0.16045149     -0.56201116      1.55047077
C           1.05295078     -0.31473110      0.92531986
C           1.32838271      0.84354455      0.15140487
C           2.06276458     -1.24762074      1.17421210
C           2.60180385      1.03076350     -0.39157687
C           3.34300601     -1.03277343      0.65335021
H           1.83504377     -2.14498833      1.76335180
C           3.60601135      0.09258328     -0.13058859
H           2.81295183      1.90672588     -1.00947317
H           4.12926376     -1.75819337      0.85176041
H           4.59921366      0.24398515     -0.54803884
O           0.28214833      1.73446783      0.02840852
C           0.30449972      2.62683467     -1.11548793
H           0.27240674      2.04553132     -2.04068599
H          -0.61752561      3.20071956     -0.96675699
H           1.18842235      3.27749203     -1.08426220
C          -5.72284320     -2.04990846      3.60645071
H          -6.39424902     -2.32135763      4.43648591
H          -4.99973753     -2.88499089      3.42332171
C          -6.45619598     -1.71919390      2.29414792
H          -5.72579039     -1.21083214      1.60605563
H          -6.76708578     -2.65584859      1.77765868
C          -8.30031518     -0.58917129      1.10328144
H          -9.16012855      0.09598660      1.14962785
H          -7.57508108     -0.14643764      0.37375785
H          -8.63630866     -1.54474168      0.66746348
C          -7.21236160      0.55253874      2.99751067
H          -8.05298216      1.18289824      3.31150021
H          -6.50694099      0.41785393      3.86158609
H          -6.62324042      1.11406877      2.24694901
C          -8.66968623     -1.39766643      3.40144574
H          -9.57585836     -0.77777167      3.48858266
H          -8.97555534     -2.40296685      3.06272059
H          -8.24004044     -1.50655780      4.41781845
N          -7.65640766     -0.78640571      2.45857641
O          -5.01873646     -0.90063500      4.05318150
H          -4.15066127     -0.83048655      3.48794667
Cl         -4.36541856     -3.09598241      0.65145908
C          -1.92297626     -4.30554000      3.22719684
H          -2.25301407     -4.29034547      2.16963486
H          -2.22136259     -5.26265054      3.68966215
C          -0.41602876     -4.04690680      3.35829160
H          -0.19491753     -3.44873145      4.26100588
H           0.16556437     -4.98615156      3.37815955
O          -2.64949079     -3.32890537      3.97742295
H          -2.61704343     -2.44977794      3.48747472
O           0.09683331     -3.37928294      2.20063565
H          -0.22426457     -2.43793063      2.16155755
C           4.77216761      5.62724672     -1.37573016
H           4.03788190      6.42524591     -1.60858735
H           5.53788704      6.01798706     -0.68650222
C           4.08917112      4.35986000     -0.85080046
H           4.80972719      3.54203850     -0.66371659
H           3.49208052      4.54305237      0.06264854
O           5.34577944      5.34680833     -2.66127242
H           6.15037922      4.79627287     -2.56783079
O           3.12714539      3.88908430     -1.80564942
H           3.49229123      4.01437168     -2.71870690
          85
 Energy =     -0.83139038 a.u.  #Cluster:   14
C          -2.93722710      1.92979065      1.23527805
C          -1.76771933      1.23937031      0.90741372
C          -1.82005703     -0.08388667      0.43705622
C          -3.04537367     -0.75288860      0.31001549
C          -4.20751649     -0.08298422      0.67871776
C          -4.15581948      1.25440460      1.13432622
H          -2.90649172      2.95897943      1.59129565
H          -0.79774151      1.73005574      1.04477194
H          -3.08082505     -1.77672304     -0.06114375
O          -5.30799657      1.90091481      1.52722487
H          -6.10531891      1.35046510      1.24611644
O          -5.48909499     -0.62178411      0.59716699
C          -5.68633296     -1.77309123      1.46429535
H          -6.77823640     -1.86152233      1.49330543
H          -5.23045256     -2.65033266      1.00045562
H          -5.26916443     -1.58375622      2.46248661
C          -0.52653317     -0.78825844      0.13208247
H           0.16490472     -0.72555690      1.01902120
C           0.17693093     -0.24887108     -1.13271820
H           0.59399802      0.77522959     -0.97994392
C          -0.67967872     -0.29610664     -2.41311232
H          -0.03505275     -0.37628455     -3.31249609
H          -1.41222821     -1.12164581     -2.40047870
O          -0.80791453     -2.20070928     -0.05553417
H          -0.16825922     -2.56182166     -0.72374531
O          -1.34169176      0.95601943     -2.57905545
H          -2.05463575      1.05695645     -1.90569122
O           1.23753084     -1.20446581     -1.44104922
C           2.40464751     -1.20703328     -0.69655315
C           2.81915984     -0.25241428      0.27410406
C           3.23072571     -2.29177840     -1.00658750
C           4.05642506     -0.40318204      0.90514057
C           4.46770071     -2.42921359     -0.36517167
H           2.90477142     -3.01337963     -1.75518534
C           4.87846971     -1.48958339      0.57889103
H           4.39879425      0.33025485      1.63238866
H           5.10873422     -3.27362328     -0.61535001
H           5.84895552     -1.59039372      1.06373922
O           1.93404117      0.77015672      0.51639164
C           2.19238732      1.64307539      1.64964538
H           3.01005462      2.32230586      1.40401843
H           1.22757989      2.16734752      1.74576386
H           2.37740944      1.06162424      2.55976623
C          -0.33760898     -4.13003354      5.38385593
H           0.22835623     -4.96675121      5.83665550
H           0.37660922     -3.30747152      5.12131216
C          -1.18450187     -4.62541029      4.19531053
H          -0.83466942     -5.62974665      3.87383297
H          -2.23518135     -4.75515078      4.55415068
C          -2.08149971     -4.24709956      1.91772543
H          -2.05176492     -3.58696048      1.01779816
H          -1.76099503     -5.24863473      1.59515043
H          -3.12698649     -4.30018361      2.25765554
C           0.22378679     -3.57781147      2.44229258
H           0.24010359     -3.04601969      1.47165662
H           0.88194897     -2.95164034      3.12722691
H           0.72888825     -4.54374221      2.32616372
C          -1.67709784     -2.32343666      3.38668628
H          -1.65666566     -1.61572476      2.53001146
H          -2.71064340     -2.34202311      3.78026309
H          -1.01969564     -1.85665647      4.15280571
N          -1.17097513     -3.68648593      2.99192387
O          -1.21459742     -3.71872049      6.43074881
H          -1.51751869     -2.79416407      6.28506534
Cl         -0.11745353      0.48735264      3.45820567
C          -4.00214749      1.55603497      4.90460802
H          -4.17337688      1.51811717      5.99704559
H          -3.51410914      2.50664104      4.63424922
C          -3.22879540      0.33799082      4.38796783
H          -2.82585227      0.48683026      3.36782880
H          -2.40069911      0.04421078      5.05741601
O          -5.33284397      1.49584171      4.36734764
H          -5.32737234      1.76636711      3.40808327
O          -4.10450304     -0.80840287      4.31439030
H          -5.04574605     -0.48756059      4.39313975
C           3.31484983     -2.87685477      4.02739593
H           4.40980273     -2.83163555      4.15584074
H           2.88608729     -3.62965828      4.71548740
C           2.65922886     -1.50313059      4.22547257
H           3.06346144     -1.00508514      5.12813356
H           2.81811501     -0.84845615      3.34723072
O           3.02871844     -3.43466618      2.73340702
H           3.33921642     -2.83235897      2.02281649
O           1.27093307     -1.69852955      4.42105399
H           0.70363343     -0.74370965      4.08492398
          85
 Energy =     -0.82876361 a.u.  #Cluster:   15
C          -3.49925453      1.48524612      0.57150777
C          -2.25015271      0.99321479      0.91574961
C          -2.10500220     -0.31047506      1.41896769
C          -3.24056266     -1.10263762      1.64276184
C          -4.49223937     -0.62317431      1.27624451
C          -4.66767929      0.69628027      0.74800383
H          -3.61198316      2.48504674      0.15772562
H          -1.36580754      1.61728174      0.77370519
H          -3.13469772     -2.10245504      2.07301223
O          -5.83467639      1.13468795      0.38319733
H          -5.83478257      1.92632617     -0.81085087
O          -5.54705388     -1.53834359      1.31133276
C          -6.52194031     -1.28255144      2.35844612
H          -7.25779491     -2.07490727      2.20497885
H          -6.04077286     -1.36097264      3.33565189
H          -6.96676158     -0.28388774      2.21541372
C          -0.72747249     -0.88408837      1.63454876
H          -0.10347369     -0.25467498      2.31193133
C          -0.03749535     -1.01285332      0.24135220
H          -0.06171523     -0.03964087     -0.29954150
C          -0.64489984     -2.13444553     -0.61419180
H           0.05160895     -2.48576106     -1.39501539
H          -0.98897625     -2.98139294      0.01320243
O          -0.89109258     -2.18536061      2.20731273
H          -0.06928818     -2.43220811      2.73875722
O          -1.78213772     -1.63551264     -1.34840707
H          -2.27053295     -0.96810580     -0.80142296
O           1.35372796     -1.42329128      0.44607101
C           2.34162319     -0.48683739      0.16554878
C           2.30924785      0.86450574      0.59899314
C           3.46114789     -0.99389165     -0.49590654
C           3.41301507      1.69025819      0.37163750
C           4.56535520     -0.16032317     -0.70868301
H           3.46142083     -2.03148389     -0.82970397
C           4.53781526      1.16743103     -0.27868802
H           3.41135543      2.72748535      0.69643167
H           5.44565566     -0.55366515     -1.21568863
H           5.40066011      1.81171905     -0.44994912
O           1.13574649      1.23893525      1.21505768
C           1.06329679      2.56947791      1.78875765
H           1.14405060      3.32541086      1.00272697
H           0.05623694      2.56123823      2.23325597
H           1.82950872      2.69331790      2.55907193
C          -6.90448932     -0.95705324     -1.28933315
H          -6.92243472     -1.72341814     -0.48724561
H          -7.05664450      0.03839818     -0.80319614
C          -5.60121976     -0.95289634     -2.09814889
H          -5.75928395     -0.40013434     -3.05489904
H          -4.81943155     -0.37991233     -1.53821412
C          -3.92081647     -2.25302077     -3.37470515
H          -3.51162707     -3.24417838     -3.62999854
H          -4.22001229     -1.75055182     -4.30858428
H          -3.07145162     -1.67439915     -2.93966600
C          -6.16417069     -3.19925707     -3.03076936
H          -5.79802523     -4.18967891     -3.33449311
H          -7.01619739     -3.34055811     -2.33025373
H          -6.60049194     -2.69114151     -3.91035093
C          -4.59225503     -3.02264403     -1.13256067
H          -4.44538575     -4.10434954     -1.25410312
H          -3.62163959     -2.59185143     -0.79269052
H          -5.30398103     -2.85832065     -0.28768135
N          -5.07475329     -2.35901813     -2.40007641
O          -7.99889474     -1.28609980     -2.15091131
H          -8.37145454     -0.46931040     -2.55139774
Cl         -5.85432033      2.20475306     -2.18051387
C          -6.44794233      2.54270243      3.16537878
H          -5.59000490      1.90737681      3.44981828
H          -6.95798911      2.91473922      4.07414197
C          -6.01554410      3.69075989      2.24617106
H          -5.01596924      4.08394997      2.50224280
H          -6.03258965      3.37721971      1.18229889
O          -7.44262815      1.73004395      2.53511315
H          -7.07112652      1.34851206      1.67167495
O          -6.86675519      4.83314831      2.41681529
H          -7.79635159      4.57787684      2.23047457
C           3.75060145     -3.62214839      2.60946751
H           3.98608867     -3.30526902      1.57560594
H           4.20583175     -2.90998886      3.32039380
C           2.24018680     -3.76862435      2.84529953
H           1.74499141     -4.32328747      2.02902291
H           2.01076417     -4.25307254      3.81221952
O           4.37857974     -4.90415927      2.71027916
H           4.39343490     -5.20465120      3.64172084
O           1.65628212     -2.46570892      2.97534285
H           1.74080866     -1.95964268      2.11373442
          85
 Energy =     -0.82644586 a.u.  #Cluster:   16
C          -2.60561602      1.84755514      1.44075486
C          -1.26359103      1.47898624      1.27806584
C          -0.92057150      0.16437045      0.95480195
C          -1.91423742     -0.81535434      0.76675258
C          -3.24651255     -0.45525995      0.91959331
C          -3.59487732      0.88220419      1.27152464
H          -2.88700443      2.86616465      1.70159610
H          -0.48311238      2.23478984      1.41025176
H          -1.62171629     -1.83557909      0.51872690
O          -4.90001325      1.26356699      1.45653077
H          -5.51025137      0.48140603      1.33759629
O          -4.35614245     -1.25706251      0.74915880
C          -4.12474963     -2.67993352      0.58283413
H          -5.14768502     -3.06975974      0.53119850
H          -3.58143804     -2.86297324     -0.34801422
H          -3.59518887     -3.08240622      1.45972237
C           0.53563470     -0.19664782      0.83000875
H           1.16324872      0.38562588      1.55481443
C           1.09496049     -0.03076795     -0.60000927
H           1.03711848      1.02026826     -0.95811429
C           0.46681902     -1.00790218     -1.61633242
H           0.29917880     -2.00949783     -1.17886999
H          -0.50358723     -0.59235502     -1.96268352
O           0.66248725     -1.59217591      1.22985275
H           1.47886100     -1.96669593      0.81403947
O           1.27653237     -1.17590254     -2.75371066
H           2.03610012     -0.20486414     -2.91968790
O           2.50024329     -0.44225203     -0.50630856
C           3.47921098      0.51767422     -0.34425495
C           3.34499951      1.76992519      0.30036302
C           4.74667708      0.09763164     -0.78111930
C           4.47211440      2.56963172      0.51848300
C           5.86145750      0.90505972     -0.56176864
H           4.81434304     -0.81860111     -1.38295478
C           5.72998630      2.13121297      0.09945619
H           4.35653245      3.53170057      1.01579729
H           6.83529707      0.59225958     -0.93592717
H           6.60464780      2.75585458      0.26769581
O           2.09528320      2.16086046      0.76744562
C           1.57903195      3.37505978      0.15142500
H           1.61985849      3.29548021     -0.94174458
H           0.54263823      3.38835763      0.52105064
H           2.14440594      4.23876322      0.50667650
C           2.79164577     -4.02848691      0.45867274
H           2.77610056     -4.80863660      1.24383370
H           1.80296553     -3.51161980      0.44489114
C           3.88929416     -2.96620904      0.73317586
H           3.63746401     -2.03707917      0.14989968
H           3.86212849     -2.67926790      1.80704544
C           6.28752029     -2.48101331      1.02402803
H           7.32441308     -2.71661282      0.73348831
H           6.10399270     -1.42135349      0.74161776
H           6.22194779     -2.54379536      2.12285248
C           5.48366438     -3.31793285     -1.14615133
H           6.50774222     -3.55105490     -1.46132502
H           4.78307626     -4.01258687     -1.67944572
H           5.21966628     -2.30287741     -1.55738232
C           5.55875661     -4.82653329      0.79199344
H           6.59133445     -5.13705154      0.57168262
H           5.37402111     -4.96188245      1.86845938
H           4.87967163     -5.52612568      0.24483045
N           5.29582500     -3.40515684      0.34647295
O           3.02825488     -4.70659104     -0.74095345
H           2.67396316     -4.12842651     -1.59291798
Cl          2.94607361      0.98836642     -3.08316082
C           3.80590376     -2.16391690     -4.33230476
H           4.29489416     -2.23223511     -5.32114055
H           2.94185505     -1.46556445     -4.38540498
C           3.37925914     -3.53504666     -3.81191485
H           2.97624363     -4.16488767     -4.63014848
H           4.21878748     -4.06308818     -3.31708804
O           4.79856555     -1.63840298     -3.42324351
H           4.67960519     -0.64829545     -3.35591585
O           2.32431459     -3.45835899     -2.85122663
H           1.96225209     -2.40849539     -2.72102751
C          -0.98775776     -2.20678208      3.98144676
H          -1.55233142     -1.34870912      3.57001447
H          -1.20272751     -2.30937075      5.05877641
C          -1.26674920     -3.49492673      3.19191077
H          -0.98900068     -3.38178277      2.12373529
H          -0.73841532     -4.36283007      3.62019111
O           0.41496845     -1.94137113      3.93212610
H           0.66420991     -1.68989416      2.99321288
O          -2.67375155     -3.76613761      3.14063529
H          -3.03569670     -3.89656432      4.03824898
          85
 Energy =     -0.82614623 a.u.  #Cluster:   17
C          -2.63350291      2.61649561     -0.41181575
C          -1.36498161      2.15739359     -0.03831528
C          -1.21255838      0.91290120      0.58763095
C          -2.33097950      0.11113431      0.86913005
C          -3.59188873      0.56085532      0.49932267
C          -3.74775790      1.82150328     -0.14385427
H          -2.76687284      3.58132008     -0.89850631
H          -0.48556945      2.78291872     -0.23126844
H          -2.19061402     -0.83393625      1.39515366
O          -4.97691063      2.29363577     -0.52413576
H          -5.69286363      1.65546417     -0.25031952
O          -4.78640583     -0.12633301      0.63931617
C          -4.83021355     -1.14736375      1.66786091
H          -5.89169717     -1.41971760      1.67273565
H          -4.20594564     -1.99660245      1.37477225
H          -4.52078102     -0.73499559      2.63292508
C           0.17121170      0.43565141      0.94594836
H           0.81195746      1.27448721      1.33352258
C           0.85920298     -0.22643242     -0.27305196
H           0.84623199      0.45755379     -1.15914509
C           0.27554003     -1.60092651     -0.63943820
H           1.03018838     -2.23916462     -1.13407660
H          -0.15024282     -2.12402833      0.23576560
O           0.01494619     -0.55036677      1.98977136
H           0.88958642     -0.69993338      2.40402698
O          -0.73784561     -1.41282826     -1.64401379
H          -1.56480738     -1.06436893     -1.22882247
O           2.22968780     -0.52311395      0.13939235
C           3.25036602      0.19970625     -0.45397153
C           3.21170943      1.60249470     -0.71235892
C           4.41592834     -0.52657889     -0.69301230
C           4.37080556      2.25693570     -1.13160375
C           5.57106436      0.14247470     -1.13221403
H           4.41376943     -1.60381837     -0.54912216
C           5.54516652      1.51972302     -1.34212876
H           4.37670083      3.33798832     -1.27751009
H           6.47542092     -0.42592514     -1.32673063
H           6.44320789      2.04258029     -1.67304514
O           1.98943408      2.18258597     -0.51521991
C           1.83774730      3.58741392     -0.85481495
H           1.99165058      3.73290697     -1.92551972
H           0.78748887      3.75251234     -0.56078678
H           2.51579637      4.20294859     -0.24348054
C           6.72576517      3.22795393      2.24345715
H           6.38404097      3.74910284      3.16710397
H           7.79606023      2.96529186      2.31974508
C           5.82987103      2.00961703      1.93574467
H           4.85247142      2.40364668      1.53092182
H           6.26090250      1.42390419      1.09278774
C           4.56636297      0.03127231      2.68729048
H           4.28283596     -0.63011597      3.51888712
H           3.62217889      0.49534666      2.30089577
H           4.95841172     -0.58263404      1.85716974
C           4.98446927      1.86049953      4.29026345
H           5.15120665      1.35484084      5.24859363
H           5.39393371      2.89889194      4.34718344
H           3.88577358      2.02097268      4.17558845
C           6.84555971      0.42122894      3.53841034
H           6.67328428     -0.33332497      4.32317133
H           7.32627308     -0.09012594      2.68535210
H           7.56924270      1.15591766      3.93154168
N           5.55332940      1.09558067      3.11800544
O           6.65988176      4.10369333      1.14169905
H           5.67777184      4.46066359      1.02348782
Cl          2.53931017      2.86955955      2.30684705
C           3.82586775      5.90608869      1.81341542
H           2.74123034      5.91153512      2.03343263
H           4.07665947      6.77116218      1.16747210
C           4.65957608      5.92705595      3.10088482
H           5.74480083      5.87901306      2.88999820
H           4.43811965      6.82510091      3.71000843
O           4.11297851      4.75990253      1.02438636
H           3.54947695      3.88096542      1.47678612
O           4.43142064      4.77811380      3.93371381
H           3.48578904      4.48461100      3.86598040
C          -0.16024888     -0.22245263     -4.75157587
H           0.46012579      0.25666936     -5.52900758
H          -1.21513362      0.08317317     -4.88026240
C          -0.01787980     -1.75226977     -4.73477281
H           1.03515894     -2.07289282     -4.66284494
H          -0.59315220     -2.20434074     -3.89874162
O           0.34459347      0.32180183     -3.53057325
H          -0.07910657     -0.15892255     -2.75785022
O          -0.62965383     -2.31639816     -5.90021643
H          -0.12237375     -2.07982633     -6.69983108
          85
 Energy =     -0.82572934 a.u.  #Cluster:   18
C          -4.06982590      1.54678839     -1.52096576
C          -3.26700245      2.38631926     -0.75039069
C          -2.49222233      1.87006660      0.29671356
C          -2.52463493      0.49519926      0.57611501
C          -3.30959831     -0.35294782     -0.19933519
C          -4.10163053      0.16591141     -1.26021449
H          -4.67799580      1.93530712     -2.33705469
H          -3.24953575      3.45509547     -0.96751476
H          -1.92397342      0.07636574      1.39223392
O          -4.92930929     -0.55269968     -2.05104666
H          -4.89216525     -1.58166478     -1.87528942
O          -3.40687887     -1.72159471      0.05762482
C          -2.19833926     -2.35448311      0.58318456
H          -2.42528427     -3.41958721      0.49008011
H          -1.32155640     -2.07027171     -0.00987931
H          -2.06056823     -2.06566792      1.63325326
C          -1.64902016      2.80924803      1.12673188
H          -1.41327187      3.76099052      0.58486900
C          -0.32316717      2.15840882      1.58780453
H          -0.15387978      1.16707526      1.09478114
C          -0.16566912      2.01096797      3.11109248
H           0.13908929      2.96451992      3.57888404
H          -1.11266139      1.66653612      3.56885551
O          -2.39284578      3.28061913      2.26100270
H          -3.00657222      2.58939838      2.59059451
O           0.85452208      1.08273137      3.38044439
H           0.62206326      0.04140000      2.87962155
O           0.72908752      3.09525257      1.17082913
C           1.62892418      2.67720894      0.21571499
C           2.70276992      3.57100510     -0.03804276
C           1.56780305      1.46089717     -0.47268935
C           3.68063267      3.24630091     -0.98325156
C           2.56281495      1.13975813     -1.39886065
H           0.76171202      0.74650167     -0.25858348
C           3.61275684      2.02298045     -1.65601070
H           4.48599465      3.95305603     -1.17702914
H           2.52133013      0.17588645     -1.91962520
H           4.38306332      1.76152420     -2.39197739
O           2.95736167      4.72284919      0.69139351
C           1.82134020      5.59917154      0.91844132
H           1.08744542      5.10387885      1.56867174
H           2.28925041      6.45515483      1.41559628
H           1.37394254      5.88635244     -0.03608180
C           3.73705229     -0.78047536      4.61605639
H           3.09577412     -1.25091711      5.38538768
H           3.61329552     -1.35055904      3.66818326
C           3.40252692      0.70368056      4.47804438
H           2.26060991      0.81953951      4.45918143
H           3.74942130      1.27123820      5.36478364
C           3.38686511      2.75760796      3.12297413
H           3.80178598      3.32810691      2.26933902
H           2.27819477      2.70797665      2.94220820
H           3.55174015      3.34085577      4.03744904
C           3.54602112      0.58610970      1.98689751
H           3.86498542      1.08412288      1.05578421
H           3.94048952     -0.44409308      1.98715299
H           2.42589391      0.49842506      1.94270906
C           5.46506661      1.43402700      3.28195231
H           5.89466073      1.76050581      2.32010222
H           5.80377295      2.13545653      4.05954801
H           5.89530972      0.43625767      3.52884715
N           3.95584984      1.36027227      3.21506899
O           5.12200343     -0.96476422      4.93832215
H           5.28289923     -0.80795751      5.88972972
Cl          0.52212075     -1.24369215      1.96093010
C           3.55163184     -1.26028716     -3.86939785
H           3.08022964     -0.92775914     -2.91160099
H           2.81525713     -1.81026581     -4.47511399
C           4.19561962     -0.08769233     -4.61934063
H           4.60993452     -0.38888795     -5.59814210
H           3.50444475      0.76473544     -4.75766010
O           4.60036978     -2.13100504     -3.41970330
H           4.93276833     -2.68101069     -4.15864472
O           5.27121011      0.45255455     -3.83785728
H           5.72049050     -0.29372718     -3.35982371
C          -6.61694363     -2.28705708      0.11971891
H          -6.50156313     -1.31028129     -0.39212456
H          -7.66094116     -2.39839486      0.47077444
C          -6.20326266     -3.45199408     -0.78570643
H          -6.02801909     -4.37671032     -0.20703430
H          -6.93910034     -3.63907473     -1.58984785
O          -5.85784398     -2.29494194      1.32976116
H          -4.92004126     -2.02341357      1.13512261
O          -4.99915778     -3.14084659     -1.52309211
H          -4.21754908     -3.10529732     -0.90683694
          85
 Energy =     -0.82538439 a.u.  #Cluster:   19
C          -3.29803277      2.95276120     -0.29067120
C          -2.18792439      2.20886593      0.10408311
C          -2.30850324      0.85706857      0.46204255
C          -3.56003167      0.22830217      0.42539333
C          -4.67841471      0.96875208      0.04978919
C          -4.55798454      2.33608223     -0.30148601
H          -3.21062484      4.00177240     -0.56687828
H          -1.20638184      2.69868530      0.16359432
H          -3.66376546     -0.81796608      0.71053186
O          -5.62952462      3.09823956     -0.64112055
H          -6.51926453      2.60217852     -0.45061152
O          -5.93970027      0.39102500     -0.04959063
C          -6.64090248      0.30753690      1.22312448
H          -7.68906352      0.44570789      0.93074684
H          -6.46418767     -0.68703139      1.63668895
H          -6.31498772      1.09361980      1.91756549
C          -1.09878065      0.11686019      0.98391690
H          -0.39716541      0.82375986      1.50613194
C          -0.33447922     -0.61265202     -0.14025879
H          -0.05255465      0.09854810     -0.95030870
C          -1.06007382     -1.84798497     -0.70204358
H          -0.33493288     -2.62319161     -1.01545983
H          -1.77501863     -2.27037969      0.02573860
O          -1.49524897     -0.85734529      1.95214314
H          -1.99370227     -0.33249565      2.78215618
O          -1.73400680     -1.50392216     -1.91292029
H          -2.47509809     -0.87977168     -1.72401750
O           0.87303477     -1.20411884      0.44956987
C           2.07944473     -0.54172308      0.35578532
C           2.27995553      0.86442114      0.38272101
C           3.18219894     -1.40345333      0.33296551
C           3.57865151      1.37892261      0.42409933
C           4.47721547     -0.87493547      0.37534472
H           3.01628580     -2.47677318      0.27980122
C           4.67257977      0.50557614      0.42467743
H           3.74335551      2.45425317      0.45092628
H           5.33195302     -1.54827182      0.36359308
H           5.68216371      0.91216311      0.45755186
O           1.14247673      1.63679197      0.31281592
C           1.20781792      2.97987114      0.86532540
H           1.88574299      3.60264917      0.28210839
H           0.15125196      3.30074982      0.75426394
H           1.47009105      2.94024760      1.92676819
C           1.20750636     -4.94963382      4.17132309
H           0.52532930     -5.57443089      3.56854876
H           2.02364886     -4.55502369      3.52848575
C           0.47175498     -3.83029422      4.93324677
H          -0.29332880     -4.27329589      5.60859837
H           1.20758969     -3.32528911      5.60785615
C          -0.86584199     -1.77077720      4.91033926
H          -1.42274483     -0.99199867      4.28496259
H          -1.62051582     -2.21387947      5.57206710
H          -0.15177383     -1.19058948      5.51400335
C          -1.21140966     -3.44653679      3.13746380
H          -1.65400305     -2.67731134      2.43584748
H          -0.77031033     -4.21735375      2.48974577
H          -2.04139853     -3.88190459      3.70973799
C           0.85104342     -2.10089060      3.18007010
H           0.34120293     -1.34472202      2.49791047
H           1.59428300     -1.55481348      3.77563430
H           1.36868059     -2.78414870      2.49100647
N          -0.18334023     -2.79170099      4.03173702
O           1.90717703     -5.74245912      5.12469645
H           1.30033454     -6.35682035      5.59100787
Cl         -1.39181742      2.80391141      3.06604454
C          -3.91953705      0.42490375      3.88990104
H          -4.23480599     -0.28765458      4.67320857
H          -4.26211479      0.06219469      2.90040458
C          -4.47511154      1.82945382      4.15902180
H          -5.43827155      1.81454527      4.69695389
H          -3.74530406      2.46435084      4.69678115
O          -2.50383304      0.42361536      3.91262468
H          -1.99943178      1.54867896      3.54976622
O          -4.80721270      2.43999316      2.89477589
H          -3.97304028      2.72819213      2.43143713
C          -7.18526490      4.57269843      1.57899367
H          -6.35123044      4.47336205      0.85186481
H          -7.58587316      5.60157416      1.54257489
C          -8.27048481      3.51138267      1.33841838
H          -8.13866544      2.64805486      2.01964530
H          -9.29215988      3.90578896      1.45255728
O          -6.70995128      4.43867047      2.91502935
H          -5.99419225      3.73220102      2.96056572
O          -8.14726298      2.91924773      0.02628609
H          -8.42419048      3.56023515     -0.66387421
          85
 Energy =     -0.82329340 a.u.  #Cluster:   20
C          -2.08676631      3.15302418      0.81117586
C          -1.28314103      2.11601984      1.28991153
C          -1.62012954      0.77950354      1.03822068
C          -2.81845154      0.44761388      0.39221922
C          -3.62576769      1.47678232     -0.08491931
C          -3.24401433      2.82840527      0.09700596
H          -1.83920216      4.19664839      0.99325412
H          -0.38277630      2.34786688      1.87819185
H          -3.09185709     -0.60779772      0.29822776
O          -3.95525453      3.85694173     -0.47653903
H          -4.83421819      3.51459890     -0.81102529
O          -4.78177707      1.30979334     -0.83785464
C          -5.66327934      0.24757944     -0.38200505
H          -6.56431934      0.42034496     -0.98021933
H          -5.21474040     -0.72431791     -0.60943170
H          -5.86683312      0.35203439      0.68857212
C          -0.65194799     -0.32959732      1.41375887
H          -0.15016892     -0.08897182      2.39631223
C           0.45697304     -0.38388755      0.31468079
H           0.51501043      0.57353397     -0.26148465
C           0.34451225     -1.57570885     -0.63787253
H           1.31290904     -1.88090844     -1.05942070
H          -0.14749342     -2.45956611     -0.14907274
O          -1.30315303     -1.54972184      1.50780636
H          -1.51892022     -1.76591825      2.73791354
O          -0.44893304     -1.15337776     -1.77261107
H          -1.39885890     -1.26217625     -1.52487416
O           1.66217932     -0.51564550      1.13282820
C           2.88820174     -0.26125282      0.55566418
C           3.20614874      0.84707703     -0.25415694
C           3.89946598     -1.16307961      0.93523940
C           4.52091184      1.04855715     -0.69487950
C           5.20319320     -0.95251779      0.49668783
H           3.63852548     -2.00608239      1.59519357
C           5.51410855      0.14359979     -0.32294841
H           4.75002961      1.91585797     -1.30851322
H           5.99128475     -1.64617958      0.79608103
H           6.53817449      0.29533206     -0.65873008
O           2.21972707      1.72700853     -0.71488568
C           1.98875183      2.86678120      0.16794253
H           2.89411144      3.47291271      0.22835677
H           1.17124482      3.39674381     -0.33816233
H           1.68540812      2.51699877      1.16680747
C          -0.69308032      1.87436335     -2.11554776
H          -1.68463636      1.58819555     -1.71177967
H           0.09460037      1.52872394     -1.39376207
C          -0.51246913      1.28768489     -3.51909145
H          -0.94346089      0.25322674     -3.53354800
H          -1.08350570      1.90965296     -4.24555163
C           0.97618828      0.95933525     -5.46211152
H           2.00845349      0.83220233     -5.83418213
H           0.41965139      0.04127801     -5.72625238
H           0.52702096      1.79999449     -6.01959738
C           1.64333182      0.05936319     -3.27309911
H           2.68146523     -0.07080061     -3.60999507
H           1.67369446      0.23091041     -2.16954756
H           1.09165511     -0.89532825     -3.40346298
C           1.67917107      2.49595556     -3.66451672
H           2.62937389      2.57752869     -4.20809111
H           1.04824774      3.37977511     -3.88326148
H           1.91368759      2.57053269     -2.57046941
N           0.95162398      1.20747735     -3.96743079
O          -0.56602967      3.29848117     -2.20446947
H          -1.39513028      3.73356162     -1.88609615
Cl         -1.24608021     -1.77915766      4.22086399
C           1.63999986     -3.97438292      3.16580953
H           0.76192466     -3.59359520      3.72277225
H           1.85360369     -5.00535289      3.49418506
C           1.43727587     -3.86590898      1.64680321
H           1.91338310     -2.94363295      1.26051114
H           1.84386345     -4.74059305      1.11007459
O           2.82317821     -3.24539685      3.52067134
H           2.60240453     -2.27178529      3.60504662
O           0.05424249     -3.88241002      1.30698777
H          -0.40482350     -3.00899912      1.58020308
C           0.89231299      1.29839558      4.41187685
H          -0.21162756      1.20328118      4.37632713
H           1.17836474      2.12626733      5.07997228
C           1.56742950     -0.03286731      4.77975798
H           2.60571823      0.09268720      5.13177856
H           0.97673230     -0.62478835      5.50282712
O           1.31925763      1.71035043      3.10065006
H           1.63411557      0.88919859      2.59625836
O           1.72281369     -0.76733987      3.55005141
H           0.83218029     -1.13620636      3.25419883
          85
 Energy =     -0.82294765 a.u.  #Cluster:   21
C          -3.51315344      1.59783468     -0.28662394
C          -2.19079531      1.37392070      0.08094438
C          -1.87121623      0.39635771      1.04099837
C          -2.87998499     -0.37700942      1.62206609
C          -4.21325353     -0.12937386      1.28253500
C          -4.54039370      0.86271829      0.33236925
H          -3.77482799      2.36380131     -1.01734808
H          -1.39241457      1.99295488     -0.35926444
H          -2.64502112     -1.13741946      2.37149369
O          -5.80865494      1.18436046     -0.04849318
H          -6.52402401      0.79511358      0.57949986
O          -5.15295722     -0.79647950      2.06786388
C          -6.18723202     -1.51804716      1.34971824
H          -6.68189376     -2.07699865      2.15280550
H          -6.87817938     -0.80265486      0.87845418
H          -5.74210996     -2.19155090      0.61277441
C          -0.43692657      0.23457477      1.46706662
H           0.10492847      1.21846211      1.43779879
C           0.29236210     -0.81211143      0.59400351
H           0.37304151     -0.47756389     -0.46762159
C          -0.30299563     -2.22874822      0.67919840
H           0.49491645     -2.99051333      0.85098344
H          -1.06712287     -2.32611417      1.47115787
O          -0.43165587     -0.18766993      2.85212531
H           0.42589404     -0.64572423      3.03215984
O          -0.84732476     -2.58538235     -0.59078674
H          -1.68296649     -2.09192695     -0.75363289
O           1.62081731     -0.99097586      1.17601996
C           2.66956927     -0.16972426      0.78125211
C           2.58423288      1.04430643      0.05527102
C           3.91226033     -0.65012806      1.21088883
C           3.74708711      1.77853683     -0.20038198
C           5.06581823      0.09325712      0.94684944
H           3.96361719     -1.59857081      1.75105474
C           4.98194411      1.30063920      0.24961661
H           3.69433844      2.71541251     -0.75112848
H           6.03156728     -0.27645657      1.28903516
H           5.88473922      1.87655860      0.04870192
O           1.32976818      1.39316550     -0.39467442
C           1.07893823      2.79472836     -0.69028589
H           1.59054579      3.07888452     -1.60966971
H          -0.02183486      2.79355002     -0.81149549
H           1.35356740      3.42663510      0.16179298
C          -3.37811566      4.85375464      4.12113514
H          -3.45384285      5.77990036      3.51950730
H          -4.12830222      4.12626089      3.75234517
C          -1.96633705      4.32898824      4.10268189
H          -1.57630148      4.34262521      2.86938170
H          -1.25327642      5.00816598      4.58646555
C          -0.33691220      2.51731704      4.40020022
H          -0.19699761      1.42814304      4.53399722
H           0.00118891      2.74078545      3.36139387
H           0.32409379      3.06269171      5.08628012
C          -2.64825898      1.97633712      3.76473333
H          -2.32676766      0.92458215      3.87930257
H          -3.72221212      2.04539432      4.03302699
H          -2.56477785      2.22089219      2.68183796
C          -2.15797035      2.77936542      6.04106227
H          -2.12904078      1.73060442      6.37182927
H          -1.48692216      3.37059008      6.68069031
H          -3.18649190      3.17043935      6.21393338
N          -1.78954812      2.91488938      4.57849065
O          -3.84938429      5.12600683      5.45912357
H          -3.36158119      5.87331454      5.84984591
Cl         -1.00979320      4.07032545      1.36733011
C          -7.92965326      1.51079544      2.72455347
H          -7.96741716      0.56349415      3.30145419
H          -8.81476021      2.11839633      2.97177401
C          -6.60645368      2.24964450      2.95636065
H          -6.11617647      2.51867564      1.99790604
H          -6.73301361      3.15676057      3.57945966
O          -8.02935881      1.06445139      1.35336016
H          -8.38827756      1.78084062      0.78247673
O          -5.71914256      1.44559637      3.73595748
H          -5.53973471      0.58018154      3.26501433
C           3.03259880     -3.95645722     -0.47041659
H           3.78913936     -4.75704397     -0.34875306
H           3.50167929     -3.05871221     -0.90520763
C           1.83489191     -4.44705396     -1.29280519
H           0.97436975     -3.74825460     -1.25169672
H           2.10240269     -4.63930142     -2.34759247
O           2.62133822     -3.69711342      0.87901638
H           2.19253843     -2.80088696      0.94398673
O           1.40289818     -5.73017569     -0.81886037
H           1.28035629     -5.67910719      0.15764435
          85
 Energy =     -0.82168464 a.u.  #Cluster:   22
C          -2.71490304      2.23270817     -0.57643825
C          -1.49484382      1.73428662     -0.10128655
C          -1.45623065      0.57615447      0.67935447
C          -2.63507408     -0.12661861      0.98861553
C          -3.84823264      0.36846308      0.52841834
C          -3.89144261      1.55893916     -0.25501258
H          -2.75940730      3.13179934     -1.19001978
H          -0.57239929      2.26031023     -0.35012967
H          -2.57639746     -1.02191547      1.61168067
O          -5.07088851      2.09110727     -0.70803958
H          -5.84351783      1.52431750     -0.42385927
O          -5.09738453     -0.17984181      0.72879222
C          -5.19501764     -1.26575024      1.68666689
H          -6.27922948     -1.43113358      1.72412897
H          -4.67202269     -2.14698534      1.30134128
H          -4.80526011     -0.95277140      2.66142278
C          -0.12821834      0.11317487      1.21989068
H           0.48148619      0.99696466      1.56533711
C           0.66594332     -0.70932049      0.17663058
H           0.60186888     -0.24343951     -0.83224353
C           0.27229619     -2.19033154      0.11452401
H           1.11877817     -2.82976784     -0.25160046
H          -0.09309792     -2.57623191      1.08343397
O          -0.38668747     -0.71098657      2.37954547
H           0.47096434     -0.77623846      2.91059699
O          -0.73355600     -2.34926772     -0.89598006
H          -1.57430801     -1.92191502     -0.61256194
O           2.05358203     -0.68256096      0.66204061
C           2.96045923     -0.06189674     -0.19125641
C           3.22093070      1.31674105      0.03286745
C           3.66199881     -0.77173929     -1.15799522
C           4.21029987      1.97442099     -0.69353202
C           4.65838544     -0.10509247     -1.88732633
H           3.44084736     -1.83473655     -1.33104506
C           4.92430878      1.24487177     -1.65788519
H           4.42175225      3.02660812     -0.53706763
H           5.21913710     -0.65398785     -2.64445891
H           5.69485613      1.75270704     -2.23888250
O           2.39952793      1.84110598      1.00288558
C           2.56691988      3.22494815      1.39376372
H           2.41208861      3.88270113      0.53496721
H           1.74605723      3.33427256      2.13102993
H           3.54400992      3.37349077      1.85493878
C           3.11287394     -0.58437992      3.85479134
H           2.79672948     -0.72631718      4.90872317
H           3.96947081      0.11568358      3.81967257
C           3.39976453     -1.92142016      3.15740217
H           2.87170845     -2.75573766      3.67222356
H           2.93887560     -1.92679990      2.11603195
C           5.04415562     -3.70929154      2.75434841
H           6.06821210     -4.00992391      2.53926843
H           4.60893787     -4.35951685      3.51045615
H           4.43241660     -3.98217745      1.70317125
C           5.61748713     -1.91875168      4.31771723
H           6.65343066     -2.30015485      4.28787768
H           5.67190997     -0.83433811      4.50050516
H           5.12595732     -2.39271621      5.18472177
C           5.47558519     -1.45138201      1.89361458
H           6.55841830     -1.61774683      1.79333491
H           5.01423611     -1.77292374      0.92285030
H           5.28324749     -0.37415318      1.99765822
N           4.88354008     -2.25343806      3.03251463
O           1.98760293      0.05684561      3.27073033
H           2.18058983      0.34633039      2.31755460
Cl          3.56841320     -3.87211550      0.27347408
C          -0.82293610      2.55870075      3.97090699
H          -0.85775670      3.48001281      4.57780666
H          -0.06489356      1.86577007      4.38995744
C          -2.19640517      1.88492264      3.85299217
H          -2.90600864      2.25479778      4.61790130
H          -2.63256990      2.03053783      2.84508206
O          -0.26884008      2.91488214      2.69090335
H          -0.97259605      3.21743313      2.07949646
O          -2.11500092      0.49349988      4.13795282
H          -1.50286330      0.03877094      3.47341453
C           0.10373505     -5.54819621     -2.24623175
H           0.12108543     -5.06480861     -3.24046440
H          -0.04783383     -6.63455645     -2.36438151
C           1.36606033     -5.20545693     -1.44888187
H           1.29664232     -4.18341512     -1.01228392
H           1.58607106     -5.92423127     -0.64253202
O          -1.05532194     -5.12191228     -1.52046427
H          -0.99636922     -4.14653870     -1.32777031
O           2.43665818     -5.23415295     -2.41142950
H           3.27277026     -4.96844166     -1.95854249
          85
 Energy =     -0.82168255 a.u.  #Cluster:   23
C          -2.66665532      2.38742739      0.09012245
C          -1.40847998      1.78036768      0.13299793
C          -1.28853342      0.38540846      0.05933952
C          -2.43471114     -0.42253219     -0.03107093
C          -3.68585167      0.17791726     -0.10118546
C          -3.80790046      1.59301840     -0.03826563
H          -2.77400097      3.47171434      0.15521879
H          -0.51957252      2.40353356      0.23075081
H          -2.32580914     -1.51076990     -0.05363102
O          -5.02213500      2.22452621     -0.11026409
H          -5.75609455      1.55693563     -0.23198996
O          -4.89550620     -0.47704420     -0.22432314
C          -4.83588625     -1.88743493     -0.56755893
H          -5.86711839     -2.09193223     -0.87521746
H          -4.12830755     -2.06891174     -1.38926457
H          -4.56129535     -2.45807404      0.32437357
C           0.07569314     -0.24759157      0.06281487
H           0.62102330     -0.03040132      1.01771080
C           0.92071253      0.18185695     -1.16196470
H           1.26768780      1.24016313     -1.08671454
C           0.23165278     -0.07171177     -2.51621948
H           0.95388584     -0.44881775     -3.26771075
H          -0.61549783     -0.78326259     -2.43720127
O          -0.08344867     -1.68650195     -0.00001968
H           0.80642390     -2.09152754     -0.20111596
O          -0.20188873      1.18315122     -3.04180804
H          -1.03380071      1.46779502     -2.59259646
O           2.05619680     -0.73075011     -1.21419483
C           3.18908697     -0.47549976     -0.46113263
C           3.36092923      0.53240147      0.52320831
C           4.23773391     -1.35047951     -0.75633570
C           4.58707876      0.65753744      1.17971524
C           5.45292400     -1.22906919     -0.07765680
H           4.08699663     -2.12830724     -1.50748633
C           5.62811604     -0.22844371      0.88128876
H           4.74087276      1.47010999      1.90191106
H           6.26535570     -1.92033205     -0.29989999
H           6.57907793     -0.13161824      1.40404475
O           2.28112029      1.37179030      0.72862940
C           2.25798484      2.12432637      1.97432807
H           3.15362563      2.77519742      2.04312344
H           1.34732960      2.72375704      1.86134363
H           2.19374854      1.43488521      2.81748264
C           6.16176350      4.99196622     -0.75903524
H           6.26754924      6.04145560     -0.42846121
H           5.90961746      4.37549852      0.14725360
C           5.13327877      4.87173064     -1.89107012
H           4.35376489      5.66745622     -1.75404960
H           5.64429132      5.06722072     -2.85938808
C           3.98420461      3.25541149     -3.38082693
H           3.42503754      2.30302116     -3.45998970
H           3.30541794      4.05444353     -3.73070730
H           4.83813442      3.19554685     -4.07515236
C           3.21668470      3.48737077     -1.06747012
H           2.59288640      2.58800692     -1.22191080
H           3.50774415      3.48131491      0.01333375
H           2.58851630      4.38978733     -1.20037058
C           5.37908172      2.40038655     -1.53923012
H           4.97252053      1.40168548     -1.76113075
H           6.37320454      2.51360224     -2.01312301
H           5.56618272      2.43857426     -0.43700057
N           4.43651555      3.50524135     -1.95498002
O           7.41113432      4.45558505     -1.21624552
H           7.97862787      5.15654482     -1.59030470
Cl          3.63294925      5.97032971      0.73812108
C          -1.10343207     -4.65981244     -0.42950136
H          -0.90261927     -3.81378037      0.26670181
H          -1.91274369     -5.28005378     -0.01451201
C          -1.39837743     -4.15093364     -1.84916660
H          -0.49464991     -4.21899454     -2.48421946
H          -2.23470768     -4.67997576     -2.33916850
O           0.13064734     -5.38763782     -0.41363473
H           0.02688382     -6.25373756     -0.85244470
O          -1.84123368     -2.79220081     -1.81326406
H          -1.18899088     -2.23612385     -1.27253319
C           5.56635822      3.94882078      2.89318598
H           6.38054850      4.67369430      2.70180343
H           6.00289958      2.97945470      3.19114200
C           4.60287418      4.49481885      3.95975593
H           3.56085490      4.19231982      3.75208074
H           4.88882752      4.17731455      4.97939274
O           4.88189842      3.68334867      1.67683106
H           4.32775582      4.63285971      1.34711055
O           4.67788348      5.92037568      4.03754666
H           4.35004194      6.32888769      3.19520175
          85
 Energy =     -0.81956853 a.u.  #Cluster:   24
C          -2.99926320      2.62736363     -0.76499901
C          -1.91697241      1.79683490     -0.44964564
C          -2.11042022      0.61109714      0.26447338
C          -3.39555843      0.23785629      0.70489475
C          -4.46851944      1.06437872      0.40464541
C          -4.27652859      2.26104939     -0.34260027
H          -2.86086562      3.54875884     -1.32899367
H          -0.91353122      2.08801361     -0.76638018
H          -3.50858674     -0.67927629      1.28672647
O          -5.32162072      3.08670891     -0.67027541
H          -6.18229602      2.71896610     -0.32037749
O          -5.79263588      0.87960991      0.76374990
C          -6.12565358     -0.37904545      1.39886107
H          -7.20910765     -0.27884456      1.54332952
H          -5.88703133     -1.21237930      0.73110550
H          -5.60426536     -0.46170575      2.35775694
C          -0.92345391     -0.27037510      0.55612036
H          -0.10302702      0.31268889      1.04824086
C          -0.38893952     -0.95463623     -0.72810740
H           0.07590359     -0.22651571     -1.43311438
C          -1.42988293     -1.83165675     -1.44878022
H          -0.94081804     -2.68255810     -1.96390729
H          -2.20654940     -2.20626260     -0.75767960
O          -1.34490683     -1.28309650      1.48897559
H          -0.66729731     -2.00322014      1.49804518
O          -2.02545983     -1.08611061     -2.51048405
H          -2.58341387     -0.36049022     -2.14551263
O           0.59308102     -1.94493980     -0.29952540
C           1.85585207     -1.54333684      0.08985125
C           2.42470376     -0.24202125      0.01666261
C           2.60644575     -2.60726041      0.60092642
C           3.73141162     -0.04609135      0.46250738
C           3.90955397     -2.38608038      1.06533218
H           2.15543684     -3.59795277      0.64175156
C           4.45763574     -1.10741940      1.00470326
H           4.18459353      0.95400615      0.40876918
H           4.47195846     -3.21431627      1.49053237
H           5.45798748     -0.90829965      1.40675661
O           1.61492104      0.76046397     -0.47841602
C           2.15023915      2.11559042     -0.47060843
H           2.96151731      2.19908111     -1.20224174
H           1.27341042      2.70307311     -0.76541990
H           2.50427711      2.39677139      0.53513814
C           7.56211277      0.74826365     -2.84584112
H           6.83399742      1.47981129     -3.24633936
H           8.26220310      1.28083874     -2.16222097
C           6.84842826     -0.43318653     -2.18005070
H           5.89890840     -0.07346481     -1.69724886
H           6.55321150     -1.16856059     -2.96064428
C           7.07948055     -2.50009923     -0.86188168
H           7.57957991     -3.02133972     -0.02865466
H           6.00610610     -2.40794287     -0.59347704
H           7.14899597     -3.14611735     -1.75264546
C           7.69263816     -0.35414523      0.17160739
H           8.27039300     -0.85076915      0.96511996
H           8.12977220      0.66502200      0.02235792
H           6.66173478     -0.15899894      0.55432895
C           9.12303982     -1.32303858     -1.58102023
H           9.65504950     -2.08196931     -0.99178696
H           9.17535550     -1.58368348     -2.65451597
H           9.70242933     -0.36499212     -1.48550041
N           7.69650283     -1.13808709     -1.11719778
O           8.41311985      0.24865997     -3.89002177
H           7.94088060      0.22388632     -4.74382414
Cl          6.11189609      2.27380971     -0.76220236
C          10.17715938      2.70290539     -1.30521382
H           9.77002092      2.53957749     -2.32005498
H          11.26886464      2.84497367     -1.35870796
C           9.45540272      3.83926385     -0.54548742
H          10.13168573      4.36030676      0.15797328
H           8.99447198      4.56876204     -1.23065633
O           9.97362513      1.46479996     -0.59915762
H           9.35241481      1.67675309      0.19100558
O           8.47085303      3.24103163      0.28452344
H           7.53258239      3.05936072     -0.26630918
C           6.26250168      2.57645860      3.11322079
H           6.52259948      3.59901422      2.78891694
H           6.49111114      2.45833839      4.18940591
C           4.80249837      2.22736292      2.80828552
H           4.70607899      1.15096307      2.56685119
H           4.12770687      2.48202452      3.64765113
O           7.12282504      1.61630800      2.47026240
H           7.51740288      2.02229348      1.65785860
O           4.26367064      2.99126697      1.72561128
H           4.89633221      3.00687068      0.95542972
          85
 Energy =     -0.81912604 a.u.  #Cluster:   25
C          -3.03526403      2.82356448     -0.02075075
C          -1.83547953      2.18249393      0.31215375
C          -1.84248508      0.89341356      0.85286441
C          -3.05344047      0.20868089      1.04667879
C          -4.24947591      0.85367464      0.76143076
C          -4.24294406      2.16652821      0.21516564
H          -3.04313417      3.82621559     -0.44302440
H          -0.88975809      2.70291368      0.14759756
H          -3.03725307     -0.81229792      1.44610051
O          -5.40513475      2.83039905     -0.09155949
H          -6.19508834      2.27087748      0.15787234
O          -5.51640922      0.33775528      0.95955982
C          -5.60764234     -0.77479213      1.89292566
H          -6.67452050     -0.78406376      2.13782325
H          -5.30353039     -1.69125376      1.37825161
H          -4.98729784     -0.59802620      2.78526940
C          -0.54548507      0.23850139      1.27374436
H           0.00262178      0.86526008      2.02285887
C           0.36787666     -0.00784902      0.05282892
H           0.41332037      0.88818919     -0.60015209
C          -0.01555878     -1.26499730     -0.75166004
H           0.29357330     -2.18730649     -0.21292422
H          -1.10744904     -1.28818246     -0.93169051
O          -0.90787352     -0.99177316      1.92589870
H          -0.10335539     -1.58431903      2.06927912
O           0.60474275     -1.20797854     -2.01288364
H           1.61196983     -1.78646474     -1.98875314
O           1.69241319     -0.28891274      0.60714089
C           2.69012289      0.64600192      0.43028610
C           2.54387271      2.04231707      0.62015976
C           3.94431061      0.10946333      0.11158850
C           3.64831854      2.88631898      0.47227673
C           5.04522532      0.95952524     -0.01423170
H           4.04326804     -0.97545516     -0.03416877
C           4.89642038      2.33846894      0.15711139
H           3.54471606      3.95840632      0.61160465
H           6.02267115      0.53580094     -0.24686012
H           5.75817205      2.99568421      0.05278484
O           1.25947037      2.49230796      0.88859440
C           1.15634607      3.66371340      1.74035549
H           1.42740030      4.55735958      1.17391282
H           0.08830536      3.66565742      2.00199505
H           1.77549934      3.54799982      2.63430193
C           1.70706550      1.60084474     -6.52575590
H           2.17983639      0.98317658     -7.30897303
H           0.63794582      1.31336439     -6.42457408
C           2.47375121      1.53949030     -5.19057100
H           3.53143990      1.23612611     -5.36170512
H           2.51346724      2.57596864     -4.76921412
C           2.69221959      0.67018976     -2.89987842
H           2.18767375      0.07350691     -2.08183482
H           3.67914043      0.18500794     -3.01893900
H           2.82845862      1.69456570     -2.53222934
C           1.83402733     -0.81169893     -4.68243702
H           1.27111526     -1.48162178     -3.97412201
H           1.35521771     -0.89368085     -5.66385515
H           2.84807171     -1.25550009     -4.72233256
C           0.44707888      1.03449470     -3.81597356
H           0.02032348      0.31289768     -3.05342264
H           0.41793888      2.03895697     -3.36869402
H          -0.21911989      1.02157574     -4.69044764
N           1.85595785      0.60524148     -4.15758330
O           1.62815912      2.96349461     -6.93823232
H           2.46356134      3.25494892     -7.36246949
Cl          3.08722025     -2.40636283     -2.17096827
C          -2.74936778      1.79515303      3.95518942
H          -1.88008118      1.89566062      3.27790499
H          -3.67595877      1.89669488      3.36449241
C          -2.71663738      0.48139321      4.75247447
H          -1.75898833      0.35472779      5.28691211
H          -3.54793144      0.41661919      5.47806313
O          -2.59835560      2.90669029      4.84704267
H          -3.41229899      3.03778825      5.37081130
O          -2.94431166     -0.62130312      3.87711669
H          -2.14616940     -0.76416629      3.27891004
C           2.20020279     -2.75996682      1.50735801
H           2.69627266     -1.84969383      1.89167316
H           1.77684064     -2.54154271      0.49722036
C           3.15305439     -3.95867947      1.47169806
H           3.52611600     -4.23737061      2.47405880
H           2.69531035     -4.83921736      0.98830504
O           1.02408687     -3.02842232      2.29389295
H           1.26723755     -3.20799275      3.22374822
O           4.33515645     -3.56792182      0.77083056
H           4.13461104     -3.43635483     -0.19456743
          85
 Energy =     -0.81723710 a.u.  #Cluster:   26
C          -3.05605889      1.78926686      0.32636398
C          -1.84524547      1.20151012     -0.06360200
C          -1.53277041     -0.11040498      0.29219740
C          -2.40401954     -0.84499130      1.11548645
C          -3.62068270     -0.28732416      1.47905628
C          -3.95508663      1.03106760      1.07983468
H          -3.31173052      2.81110995      0.04192271
H          -1.14658585      1.79032092     -0.65981352
H          -2.12206150     -1.84987759      1.44492314
O          -5.16436170      1.59915908      1.41327041
H          -5.70190281      0.94818002      1.95244139
O          -4.59895565     -0.89807382      2.24602174
C          -4.59731557     -2.35266368      2.23690584
H          -5.59630207     -2.58686608      2.61921983
H          -4.45193010     -2.74395739      1.21974430
H          -3.81168596     -2.71116245      2.90699675
C          -0.26600382     -0.77956233     -0.21251844
H           0.63557432     -0.35421020      0.29496869
C          -0.13885991     -0.55403522     -1.74919112
H          -0.25945790      0.52451554     -2.01078477
C          -1.08223335     -1.43293754     -2.57662164
H          -1.16430500     -2.47631224     -2.18397614
H          -2.09357185     -0.99117117     -2.63452495
O          -0.20597182     -2.14857446      0.08813198
H          -1.18143820     -2.69680944     -0.06253851
O          -0.57670227     -1.63108630     -3.90651656
H          -0.23834724     -0.78467910     -4.27223206
O           1.18231901     -0.97773320     -2.22208988
C           2.29167852     -0.26351842     -1.81374103
C           2.37023356      1.14774628     -1.64738712
C           3.44279795     -1.04087702     -1.66194944
C           3.58854495      1.74286316     -1.31464953
C           4.66504874     -0.43115553     -1.34730399
H           3.37507080     -2.12099863     -1.77606114
C           4.73382960      0.94817788     -1.17029352
H           3.66400621      2.81827895     -1.17703392
H           5.55642268     -1.04508213     -1.23183142
H           5.68267591      1.42058171     -0.91631509
O           1.19579286      1.84359981     -1.86026561
C           1.13062958      3.20948375     -1.37882825
H           1.83781737      3.83942633     -1.92474630
H           0.09548191      3.48400535     -1.62413025
H           1.30489749      3.23921335     -0.30062891
C          -0.76791486     -6.04775767     -1.95517931
H          -0.31747244     -7.01662030     -2.23290962
H          -0.63504267     -5.85910314     -0.86817162
C          -0.24122966     -4.87757479     -2.81443433
H          -0.46928392     -5.08050272     -3.88374162
H          -0.83441241     -3.94945617     -2.55312227
C           1.66469398     -3.59770790     -3.70763771
H           2.71610635     -3.29484201     -3.60247511
H           1.50746293     -3.99280156     -4.72050353
H           1.05595637     -2.64786414     -3.63019236
C           2.05223008     -5.84903046     -2.78950015
H           3.13287662     -5.63643727     -2.82688480
H           1.88497539     -6.52705674     -1.92807474
H           1.77832365     -6.39457140     -3.70675073
C           1.50530077     -3.98559806     -1.28329030
H           2.56547014     -3.76921983     -1.10956685
H           0.94781845     -3.01254854     -1.12627484
H           1.14268421     -4.64936901     -0.46544755
N           1.24169581     -4.57848856     -2.63779720
O          -2.13833058     -6.20915784     -2.28062439
H          -2.69800358     -5.54692561     -1.77822920
Cl         -2.39274954     -3.81582704     -0.28293300
C           0.54397942     -4.28946455      2.26270061
H           0.59112680     -3.47942177      1.49441189
H          -0.00978400     -3.91845413      3.13569169
C          -0.00866936     -5.60345780      1.70377154
H          -0.21110360     -6.35457802      2.48331787
H          -0.91475645     -5.46237314      1.07726591
O           1.92955681     -4.52554534      2.58562819
H           2.01135493     -4.93648203      3.46556253
O           0.97069643     -6.16495698      0.80209261
H           1.87058026     -6.00425612      1.20011453
C          -7.17442985      4.28916040     -0.98582800
H          -6.98913474      4.80979935     -1.93797257
H          -7.98653941      3.55311704     -1.11714150
C          -5.89636356      3.65103751     -0.43458174
H          -5.78086926      3.82416430      0.65697231
H          -5.84783178      2.56058025     -0.61098809
O          -7.73706253      5.21131970     -0.05290151
H          -7.08854090      5.90593185      0.17433500
O          -4.73010425      4.27925976     -0.99118596
H          -4.62875117      4.03736169     -1.93097885
          85
 Energy =     -0.81712272 a.u.  #Cluster:   27
C          -3.60338775      3.15107026      0.19677336
C          -2.53399928      2.25489450      0.10571605
C          -2.76052995      0.87159759      0.07883999
C          -4.06567294      0.36779095      0.15497922
C          -5.13766730      1.25283680      0.17484870
C          -4.90740373      2.65066739      0.21525979
H          -3.43428215      4.22783702      0.23374090
H          -1.50935534      2.65245412      0.02847041
H          -4.23359131     -0.71129488      0.19639058
O          -5.94692362      3.55223041      0.19712850
H          -6.80656220      3.08374925      0.39442436
O          -6.47684597      0.91237326      0.07762036
C          -6.82237702     -0.45652734      0.41788462
H          -7.89881577     -0.47647016      0.21419520
H          -6.28022510     -1.16389591     -0.22636817
H          -6.60755202     -0.63838973      1.47470580
C          -1.58487093     -0.06123126     -0.02778965
H          -0.85052116      0.14173226      0.80021908
C          -0.84284898      0.01730428     -1.37880018
H          -0.39219992      1.03606980     -1.51674355
C          -1.56652824     -0.39642282     -2.66420125
H          -1.67561330      0.48681848     -3.34547122
H          -1.00258133     -1.20120059     -3.17942790
O          -2.04382312     -1.43052334      0.17279368
H          -1.26252073     -2.02378712      0.01846503
O          -2.91812970     -0.84090939     -2.51148837
H          -3.01670602     -1.38723330     -1.68637824
O           0.21413155     -0.99988574     -1.24732847
C           1.50921571     -0.57960391     -1.01892057
C           1.90488727      0.63226694     -0.39695012
C           2.47995649     -1.50534168     -1.42767341
C           3.26332542      0.91967475     -0.22716918
C           3.83159849     -1.20532385     -1.24550354
H           2.16453736     -2.43442003     -1.90066097
C           4.22368457     -0.00098306     -0.65420873
H           3.56429136      1.85578031      0.24142453
H           4.59030387     -1.91484127     -1.59188924
H           5.28117115      0.23129148     -0.53069477
O           0.90305527      1.45523729      0.08083834
C           1.02770636      2.87055860     -0.24595421
H           1.30925770      3.00928246     -1.29687887
H          -0.01189539      3.22176378     -0.10006318
H           1.72567890      3.34143836      0.44525884
C          -4.07118872      4.51175087     -3.59373820
H          -4.86750300      4.92815186     -4.23674959
H          -3.84878290      5.23151533     -2.77740827
C          -4.48952646      3.17252759     -2.93775712
H          -3.63316366      2.82656218     -2.29245268
H          -5.35188819      3.34288418     -2.25650350
C          -5.27211240      0.84319890     -3.13463914
H          -5.60364101      0.02439388     -3.79009336
H          -4.42395566      0.42110602     -2.52954795
H          -6.08160052      1.07841461     -2.42339735
C          -3.59653719      1.68377684     -4.72708974
H          -3.81049869      0.91788843     -5.47957457
H          -3.16241997      2.59837140     -5.21799160
H          -2.77378566      1.31470031     -4.06315225
C          -5.92421427      2.48473174     -4.85303259
H          -6.21584096      1.67152753     -5.53695382
H          -6.82106736      2.80047725     -4.29533548
H          -5.59505320      3.34008577     -5.47703964
N          -4.81561639      2.05341226     -3.91724228
O          -2.95422971      4.36497150     -4.42244414
H          -2.07367797      4.00372199     -3.80797779
Cl         -1.12352553      3.11005375     -2.74959882
C          -4.01969606     -4.76666544      0.24814279
H          -3.71683449     -5.80256822      0.00182429
H          -3.22909648     -4.28018635      0.84973356
C          -4.36701642     -3.95445254     -1.00339153
H          -3.60763871     -4.06049171     -1.79723496
H          -5.36317306     -4.23000694     -1.40440388
O          -5.17634999     -4.95565661      1.07092070
H          -5.57290496     -4.08110177      1.28287275
O          -4.52555656     -2.56827390     -0.67830127
H          -3.65907605     -2.17653780     -0.34057194
C           6.67783004     -2.59301857      0.68648362
H           6.51412441     -1.56689154      1.06400860
H           7.66216587     -2.95675867      1.03834649
C           5.53157961     -3.52887111      1.09078248
H           5.14831978     -4.09950376      0.22575787
H           5.83345783     -4.23711216      1.88654905
O           6.84717306     -2.57291038     -0.73591083
H           6.05459038     -2.17857743     -1.17493735
O           4.46975131     -2.79900199      1.71216667
H           4.01516843     -2.21814872      1.06396285
          85
 Energy =     -0.81562941 a.u.  #Cluster:   28
C          -4.02693808      2.43135868     -1.28597594
C          -2.72275063      2.04765142     -0.95173813
C          -2.49542595      0.94254061     -0.12020139
C          -3.56860817      0.20247520      0.40448090
C          -4.86561495      0.58345462      0.07908802
C          -5.09040799      1.68948926     -0.77593123
H          -4.21586327      3.29052582     -1.93555005
H          -1.88444455      2.61880923     -1.36304495
H          -3.36817854     -0.65377895      1.05230153
O          -6.37890908      2.04407241     -1.14669978
H          -7.04406244      1.58251795     -0.56045810
O          -6.03992928      0.01751742      0.54650325
C          -5.98755216     -1.38979486      0.89168150
H          -7.04370656     -1.61862677      1.07859895
H          -5.59350658     -1.97196589      0.05334878
H          -5.38597762     -1.52636481      1.79553541
C          -1.08846614      0.54932239      0.26076323
H          -0.69456146      1.24266765      1.05144064
C          -0.10380571      0.52301035     -0.92895042
H           0.21787097      1.55566486     -1.20621713
C          -0.55789443     -0.24384127     -2.18062423
H          -0.38248269     -1.33042584     -2.07711968
H          -1.63076763     -0.05721799     -2.38816387
O          -1.15684194     -0.75925800      0.86310374
H          -0.25693266     -1.16858872      0.82988697
O           0.20439400      0.16657672     -3.29675131
H           0.21012191      1.30853324     -3.38547730
O           1.04196039     -0.26330850     -0.43397079
C           2.18874248      0.38334100     -0.05184118
C           2.31714237      1.75276402      0.31507162
C           3.31421237     -0.45277663     -0.02447004
C           3.57557873      2.27383110      0.62177051
C           4.56451479      0.07768018      0.30758407
H           3.19210312     -1.51004661     -0.25430556
C           4.69409602      1.43260685      0.61138358
H           3.68134054      3.32501533      0.88707494
H           5.43299339     -0.57698181      0.33002227
H           5.67215096      1.84844826      0.86525376
O           1.14532113      2.47077198      0.42389295
C           1.18003108      3.86094946     -0.00309756
H           1.46645462      3.92032281     -1.06185523
H           0.12743775      4.15109446      0.12316406
H           1.83741623      4.44418411      0.64198865
C           5.86373105     -0.12928991     -3.66558732
H           5.42153615     -0.76030770     -2.86862207
H           6.65614422     -0.70247051     -4.18191380
C           4.83433713      0.39916278     -4.67104849
H           5.20471189      1.38055719     -5.06463773
H           4.76167458     -0.29428924     -5.53737498
C           2.50848003      1.03443503     -5.19304168
H           1.43638809      0.89845769     -4.88242894
H           2.59244256      2.11410713     -5.41568713
H           2.65576598      0.44949670     -6.10856879
C           3.49365904      1.67859475     -3.01021377
H           2.59053094      1.63578548     -2.36310542
H           4.38906348      1.57786695     -2.36704193
H           3.49216754      2.69513571     -3.44502657
C           2.92430676     -0.67419717     -3.48078180
H           1.83262502     -0.52643743     -3.15099713
H           2.91360092     -1.49934780     -4.20230360
H           3.48169732     -0.97117750     -2.58114373
N           3.44037951      0.60916386     -4.07670139
O           6.43036505      1.03572179     -3.05077791
H           7.31449137      0.79886764     -2.63509780
Cl          0.62622358      2.90101618     -3.41611905
C          -7.00960588      4.19818895     -3.69511151
H          -6.98335380      5.11743593     -4.30845070
H          -8.05748432      3.93072308     -3.46894738
C          -6.27352269      3.03430305     -4.37197144
H          -6.43420197      3.02358345     -5.46562749
H          -5.18924861      3.06094577     -4.15440221
O          -6.34646320      4.59711832     -2.48878567
H          -6.40756052      3.87079382     -1.81784788
O          -6.81471666      1.77565743     -3.95452978
H          -6.65943031      1.65466201     -2.98349725
C           8.43938471      1.93304388     -0.26252240
H           9.34083201      2.57118096     -0.34196898
H           7.66079138      2.31109942     -0.95222872
C           8.74570002      0.44916961     -0.51488129
H           9.69373162      0.12556443     -0.05261649
H           7.93046084     -0.21118992     -0.16274452
O           8.04024263      2.09510640      1.09676978
H           7.08884264      1.82249301      1.21293711
O           8.78770739      0.19598961     -1.93292008
H           9.58868246      0.59929667     -2.33074482
          85
 Energy =     -0.81251617 a.u.  #Cluster:   29
C          -2.73638032      3.08120796      0.50335325
C          -1.64028806      2.20234673      0.55430013
C          -1.82076307      0.86925779      0.93127753
C          -3.09664862      0.38198849      1.27669680
C          -4.18109611      1.24811303      1.22346991
C          -4.00396485      2.60854052      0.83344136
H          -2.60606319      4.12690496      0.21978232
H          -0.64408256      2.59467262      0.31214994
H          -3.20128767     -0.65474321      1.59337385
O          -5.05464228      3.48311819      0.76216431
H          -5.90070060      3.03866102      1.04416627
O          -5.50305633      0.94343109      1.48684350
C          -5.76736761     -0.31589980      2.15115915
H          -6.84912013     -0.25117404      2.32735872
H          -5.52343599     -1.14903349      1.48116072
H          -5.21496192     -0.37306855      3.09618503
C          -0.63429052     -0.05497729      0.97317624
H           0.21250257      0.39416644      1.56244038
C          -0.14496379     -0.48464033     -0.43233229
H           0.42260676      0.32379453     -0.94547715
C          -1.25432285     -1.05176337     -1.33506699
H          -0.85391104     -1.82826314     -2.01878920
H          -2.09272031     -1.46732823     -0.74826746
O          -1.02991218     -1.24760592      1.69916478
H          -0.45691313     -2.00482249      1.39592161
O          -1.71870565     -0.02889677     -2.21439842
H          -2.17966999      0.67749145     -1.70429370
O           0.70346297     -1.65134928     -0.18684709
C           2.07034101     -1.47360832     -0.03701105
C           2.73109096     -0.28416271      0.36988814
C           2.80263684     -2.64424420     -0.25528311
C           4.10672405     -0.30747468      0.61987483
C           4.18867431     -2.64144742     -0.03984773
H           2.28869988     -3.53854362     -0.60106356
C           4.83025609     -1.48473910      0.40293431
H           4.60812655      0.58035166      1.01525197
H           4.75440890     -3.55262010     -0.22091951
H           5.90596798     -1.49076663      0.58371298
O           1.92350593      0.82263804      0.50566026
C           2.56683792      2.12313633      0.61387556
H           3.19352015      2.30657718     -0.25790215
H           1.69024197      2.79670302      0.62675359
H           3.12207161      2.19159195      1.55988305
C           0.42140284      0.00572268      4.56588101
H           0.58061186      0.03869715      5.66030784
H           0.15718968      1.02363428      4.21328531
C           1.61315779     -0.50551445      3.78926805
H           1.40145202     -0.57530695      2.70910805
H           2.51310169      0.41658847      3.81992438
C           3.43437822     -2.11944111      3.42522207
H           3.99294923     -2.99304959      3.81553885
H           3.12425364     -2.35200541      2.39339129
H           4.14625486     -1.26564830      3.36358756
C           1.26995109     -2.91272128      4.30490898
H           1.66062932     -3.79552598      4.84238128
H           0.32130048     -2.60814520      4.80918641
H           0.99973679     -3.21747482      3.28308397
C           2.78167347     -1.54495630      5.70431989
H           3.30622010     -2.44351444      6.08001685
H           3.48987814     -0.68498751      5.70827150
H           1.96805685     -1.30362384      6.40739553
N           2.25262527     -1.76339827      4.30071361
O          -0.73571559     -0.83558139      4.43360841
H          -0.96640984     -0.94007638      3.46458368
Cl          3.75634512      1.45307750      3.93202763
C           3.54579856     -5.04444213      6.35421303
H           3.97850909     -5.57449746      7.21730928
H           3.77425851     -3.95170302      6.42874438
C           4.00619574     -5.60411308      4.99741453
H           4.42740641     -6.62119772      5.06342533
H           3.17551143     -5.59557647      4.25675950
O           2.11755716     -5.06810083      6.42503147
H           1.79010280     -5.97161881      6.61340480
O           4.96187089     -4.70807839      4.42072243
H           5.83384957     -4.80009910      4.85716334
C           1.38460446      4.20964746      3.71540904
H           1.32281796      3.60847456      4.64790392
H           2.34634000      3.97256819      3.22049395
C           0.17815533      3.97464554      2.80282726
H          -0.10769849      2.90273346      2.77033747
H          -0.68911308      4.58873744      3.11026715
O           1.37239191      5.56279978      4.20008255
H           1.79719883      6.16769187      3.56317793
O           0.50052049      4.26163132      1.42733205
H           0.54691619      5.22367365      1.27656539
          85
 Energy =     -0.81222959 a.u.  #Cluster:   30
C          -3.81447567      3.37273540     -0.18720663
C          -2.59938399      2.67914125     -0.16641191
C          -2.56905733      1.28398605     -0.06437206
C          -3.76455767      0.55238650      0.05074136
C          -4.97396165      1.23366434      0.01204936
C          -5.00449807      2.64909561     -0.10454987
H          -3.84820646      4.46025999     -0.26002329
H          -1.66225314      3.24641873     -0.22134566
H          -3.72717185     -0.53280531      0.16664294
O          -6.18956113      3.33528329     -0.17873819
H          -6.95295788      2.72295694      0.03512518
O          -6.23507937      0.66020967      0.00069385
C          -6.37495327     -0.60532075      0.69709137
H          -7.46187026     -0.75713681      0.67433510
H          -5.85282736     -1.39211967      0.14468643
H          -6.00563943     -0.52129291      1.72334117
C          -1.24497205      0.56096064     -0.07673976
H          -0.60003358      0.89827407      0.77666275
C          -0.46352432      0.72406929     -1.40544174
H          -0.32667255      1.79937582     -1.65119198
C          -0.99006383     -0.09323488     -2.60328396
H          -1.02911710      0.51712731     -3.54029462
H          -0.33974858     -0.97709183     -2.77290057
O          -1.53437813     -0.84683775      0.11563129
H          -0.67441871     -1.33418278      0.16027914
O          -2.33601439     -0.53688490     -2.43388347
H          -2.40625838     -1.03286584     -1.56582497
O           0.82669895      0.08021760     -1.16724835
C           1.93659379      0.86226513     -0.89554368
C           1.94576092      2.11457345     -0.23299042
C           3.14095413      0.26007423     -1.27993518
C           3.16314363      2.74799061      0.03636177
C           4.35102535      0.89912118     -0.99724647
H           3.11517883     -0.70250680     -1.79068009
C           4.36047196      2.13411592     -0.34434326
H           3.18543664      3.71452230      0.53585559
H           5.28946959      0.43161663     -1.29497731
H           5.30807513      2.63019689     -0.13149227
O           0.70410886      2.61332552      0.11090333
C           0.63173443      4.01669585      0.48262144
H           1.10753605      4.64479520     -0.28988494
H          -0.45737928      4.17759332      0.50730500
H           1.08156340      4.16122803      1.46642200
C          -6.34672044      1.72603352     -6.14996118
H          -6.56988655      2.44225728     -6.96553833
H          -5.96072117      0.78738275     -6.59767615
C          -5.38838968      2.35645584     -5.14972831
H          -4.52240896      2.87564991     -5.74401813
H          -5.87061845      3.19290796     -4.60407072
C          -3.72296482      2.13739255     -3.35078554
H          -3.22495486      1.45526741     -2.63009202
H          -2.93876068      2.56225064     -4.01603379
H          -4.16025985      2.97966909     -2.79151227
C          -4.10194843      0.23379144     -4.84888018
H          -3.58132794     -0.42816667     -4.12868546
H          -4.81371153     -0.36984011     -5.42715484
H          -3.29784729      0.59327358     -5.56722535
C          -5.82638886      0.86964772     -3.20718227
H          -5.41994188      0.09937305     -2.52994388
H          -6.23615976      1.67222730     -2.57112171
H          -6.67464440      0.42889857     -3.77340889
N          -4.76700747      1.39231165     -4.15310229
O          -7.56988691      1.30391552     -5.52682235
H          -8.12322760      2.07525517     -5.29171339
Cl         -2.87283423      3.72855252     -6.32889496
C           1.43823805      4.26648704     -3.15686803
H           1.11037112      4.94026031     -3.97128353
H           0.56024342      3.75398118     -2.72577187
C           2.53754452      3.29367810     -3.60401219
H           2.76220426      2.52904892     -2.83275848
H           2.31827038      2.79952945     -4.56470958
O           1.93377788      5.09832640     -2.09430484
H           2.91735973      5.20316352     -2.20721448
O           3.76685892      4.03482800     -3.67684992
H           3.80350638      4.55050160     -4.51149654
C          -0.61147081      1.18570429     -5.99446599
H          -0.72650061      1.06136127     -4.89307645
H          -0.13386966      2.16167867     -6.20134760
C           0.19248250      0.02952126     -6.60218195
H           0.97093666     -0.35446116     -5.92020572
H          -0.47814837     -0.79116461     -6.91775984
O          -1.90614893      1.15008859     -6.57375530
H          -2.27605268      2.19856967     -6.68061637
O           0.95105284      0.47775461     -7.73486986
H           0.34010769      0.83954392     -8.41440143
          85
 Energy =     -0.81146155 a.u.  #Cluster:   31
C          -3.81371281      2.44085189     -0.84386651
C          -2.56565283      1.86547630     -0.57145177
C          -2.47789715      0.61974466      0.05783336
C          -3.63600501     -0.06888674      0.46023988
C          -4.87972740      0.48951020      0.18642294
C          -4.96220546      1.74531737     -0.48327587
H          -3.89541954      3.40971121     -1.33700818
H          -1.65993985      2.40064399     -0.86210232
H          -3.53803235     -1.01792489      0.99641412
O          -6.17789427      2.27655273     -0.85994921
H          -6.92715400      1.79864080     -0.39288774
O          -6.12029516     -0.02013225      0.46539347
C          -6.21456341     -1.37091225      1.00533786
H          -7.29871506     -1.48953754      1.14776975
H          -5.84223894     -2.08578023      0.26065122
H          -5.69205207     -1.44694067      1.96144603
C          -1.10661752      0.05673493      0.32744990
H          -0.57585188      0.68388843      1.09333945
C          -0.22741069     -0.05125908     -0.94105421
H          -0.09644037      0.93544526     -1.43878046
C          -0.68057167     -1.11764014     -1.95370999
H           0.15633290     -1.39355128     -2.62482964
H          -1.06630482     -2.02245982     -1.43982872
O          -1.24510759     -1.27527365      0.87667522
H          -0.34579933     -1.57177037      1.16163193
O          -1.66222610     -0.56549386     -2.82073056
H          -2.56901053     -0.56882242     -2.38100677
O           1.04459305     -0.58463883     -0.45627180
C           2.12612490      0.27656255     -0.37203729
C           2.06353918      1.65472631     -0.03796153
C           3.36242824     -0.34343787     -0.57657550
C           3.24372737      2.39362407      0.07012864
C           4.53800137      0.40282961     -0.44003580
H           3.39109893     -1.40209225     -0.83026731
C           4.47677327      1.76118032     -0.12467426
H           3.20865083      3.46485323      0.28176723
H           5.50184572     -0.08362907     -0.58484964
H           5.39525438      2.34095806     -0.02627519
O           0.78908030      2.15756740      0.13715887
C           0.66378853      3.52819147      0.60266475
H           1.10273941      4.22198540     -0.13003626
H          -0.42598576      3.64347728      0.66034967
H           1.12867639      3.63560434      1.58580481
C          -3.49500075     -6.33542315      1.62313175
H          -3.06864636     -7.34558406      1.45555963
H          -2.83170486     -5.78343566      2.31729367
C          -3.68004797     -5.60331771      0.27082367
H          -3.26840376     -6.20454863     -0.56235520
H          -4.79560387     -5.56470688      0.09417099
C          -3.94321207     -3.39290187     -0.79004894
H          -3.52221135     -2.38590443     -0.98112843
H          -4.03511347     -3.89847707     -1.76245630
H          -4.98318440     -3.23760787     -0.39426758
C          -1.68578832     -4.23154607     -0.29709280
H          -1.27458181     -3.19569162     -0.40231103
H          -1.03565623     -4.77948821      0.40403516
H          -1.61018440     -4.71805311     -1.28220235
C          -3.13440075     -3.47847013      1.53029013
H          -2.85695126     -2.40435194      1.42816046
H          -4.15968384     -3.51213339      1.99173954
H          -2.45470998     -3.94562648      2.25938329
N          -3.11652145     -4.18468704      0.19837053
O          -4.73190790     -6.57220353      2.22987305
H          -5.38308485     -5.69419562      2.20511976
Cl         -6.25605921     -4.23086025      1.73848431
C          -5.21808454     -0.64476865     -3.08861080
H          -5.65014437     -0.53513595     -2.07432123
H          -5.92734384     -1.19962115     -3.72634515
C          -4.81514083      0.70431002     -3.70114880
H          -3.96613448      1.16038086     -3.15777272
H          -4.55431929      0.62154826     -4.77282542
O          -4.04353470     -1.45287373     -2.86692122
H          -3.62563840     -1.69432279     -3.72668938
O          -5.94448971      1.57388487     -3.69827605
H          -6.12585978      1.89893106     -2.77431186
C           3.87523333      3.80625134     -3.14715812
H           4.39243206      3.13302316     -2.43172921
H           3.91041349      3.37098382     -4.15760501
C           2.45309184      4.14695121     -2.68579980
H           1.89006182      4.72821341     -3.43790412
H           1.87386578      3.24972722     -2.39600744
O           4.66069865      5.00721616     -3.07694956
H           4.46647336      5.59070530     -3.84038554
O           2.51401394      4.93748959     -1.48807298
H           3.32563659      5.51169449     -1.52639462
          85
 Energy =     -0.80994330 a.u.  #Cluster:   32
C          -3.93542057      2.28858269     -1.15359871
C          -2.53438561      2.34608871     -1.14047481
C          -1.80143766      1.58184357     -0.22909342
C          -2.45875321      0.77294782      0.71167613
C          -3.84270311      0.67685905      0.67875800
C          -4.58965895      1.44242376     -0.25935667
H          -4.51907701      2.88502652     -1.85082668
H          -2.02607269      2.99826320     -1.84757320
H          -1.86553661      0.22109506      1.44950451
O          -5.96115908      1.38049897     -0.32037978
H          -6.30143767      0.72003299      0.34760985
O          -4.61772861     -0.11550692      1.50440852
C          -3.92749369     -1.22256195      2.15049533
H          -4.76013676     -1.84939262      2.48432248
H          -3.27942565     -1.75532922      1.44169106
H          -3.34691360     -0.83757120      2.99446449
C          -0.28286554      1.59830627     -0.25368387
H           0.07944713      2.66430928     -0.20311441
C           0.24670131      0.93279336     -1.55901122
H           0.33198810      1.67186152     -2.38400237
C          -0.52324417     -0.32390152     -1.99991287
H           0.15335861     -1.19194489     -2.12402789
H          -1.32769992     -0.62646794     -1.30164987
O           0.30650098      0.96739677      0.82745702
H           0.00490260     -0.24931212      0.94280873
O          -1.06965719     -0.08472406     -3.31009404
H          -1.91296695      0.41404105     -3.22980779
O           1.60560396      0.40019492     -1.40090642
C           2.40231470      0.74667950     -0.32420251
C           2.96799351      2.02735575     -0.14910710
C           2.84081803     -0.32547987      0.47508585
C           3.90794938      2.25277618      0.86590229
C           3.78860724     -0.09505760      1.46696100
H           2.37044120     -1.30710088      0.34391637
C           4.31849549      1.18916247      1.66687127
H           4.28711355      3.25708632      1.03438231
H           4.10259770     -0.91740211      2.11133997
H           5.03704207      1.36076025      2.46571286
O           2.66088134      3.04226004     -1.05882468
C           1.96590860      4.18584109     -0.48061648
H           2.67693682      4.79633957      0.07673190
H           1.56996557      4.69846203     -1.36017839
H           1.15667304      3.83315355      0.19530889
C           2.95441757      3.41109032     -4.59865515
H           2.88655506      4.31623231     -3.96120274
H           3.64113454      3.59412533     -5.44638222
C           3.33517035      2.15665217     -3.79766497
H           2.70729921      2.11615187     -2.85677150
H           3.03433503      1.22994087     -4.37246904
C           5.04198348      0.80201991     -2.62497470
H           6.10499848      0.65408795     -2.38582860
H           4.48455677      0.82946746     -1.66439153
H           4.67740082     -0.10390027     -3.16585529
C           5.22568026      3.25903980     -2.61766322
H           6.21253324      3.11702542     -2.15070542
H           5.25762942      4.17957099     -3.21936047
H           4.48638996      3.43549895     -1.78811011
C           5.64688076      1.97560347     -4.69206959
H           6.72117050      1.89212493     -4.45783175
H           5.36226118      1.09025762     -5.29426408
H           5.50597313      2.86199648     -5.33562924
N           4.80664396      2.05859156     -3.43481447
O           1.63176139      3.26610132     -5.09301377
H           1.52964827      2.39539960     -5.58413187
Cl         -0.27087340     -1.73341801      0.92606087
C           0.96216738     -0.16271013     -5.20040583
H           0.07306700     -0.58502030     -5.69637376
H           0.61311236      0.53458754     -4.40258565
C           1.89808042     -1.24046562     -4.65221926
H           1.32950958     -2.06417278     -4.17719836
H           2.57089472     -1.64181464     -5.43133224
O           1.70250970      0.68098203     -6.11495735
H           1.51403022      0.43914075     -7.03947053
O           2.80358430     -0.68431779     -3.68949280
H           2.30435113     -0.40433715     -2.86132046
C           0.01741666      3.52021934      3.22489355
H           0.40469726      4.49499956      3.57301561
H           0.07737221      2.79057969      4.05055802
C          -1.41180814      3.64917713      2.67270426
H          -1.47453645      4.40296218      1.86752510
H          -1.80529637      2.68793773      2.29784857
O           0.90283268      3.14081319      2.17932544
H           0.72186429      2.16377316      1.89578128
O          -2.27214870      4.17597897      3.69316760
H          -2.45879595      3.49158228      4.36410226
          85
 Energy =     -0.80960442 a.u.  #Cluster:   33
C          -3.59330199      2.70816731      0.09263904
C          -2.25395447      2.33586492      0.25608263
C          -1.91959590      1.14393284      0.90835840
C          -2.91703018      0.29336989      1.41597324
C          -4.24705344      0.66171972      1.26344479
C          -4.59051073      1.87149819      0.59329775
H          -3.86842392      3.63236688     -0.41729005
H          -1.47265651      2.98787853     -0.13959809
H          -2.62987612     -0.62207709      1.93473135
O          -5.89593083      2.24644436      0.42747823
H          -6.50416325      1.55023900      0.81878978
O          -5.35367839     -0.00186484      1.75455053
C          -5.24178340     -1.43746563      1.91947867
H          -6.25539817     -1.69718865      2.27920413
H          -5.02346677     -1.91185474      0.96052622
H          -4.49270777     -1.67644464      2.67741911
C          -0.46583270      0.79764877      1.08349711
H           0.10568095      1.71067736      1.43252868
C           0.19989135      0.23732824     -0.19563264
H           0.48332765      1.05394008     -0.89720412
C          -0.59913948     -0.86231856     -0.91889437
H           0.08034502     -1.52645687     -1.49234651
H          -1.21044565     -1.46451451     -0.22527230
O          -0.34087198     -0.14748451      2.16650408
H           0.40060861     -0.78033926      1.95740308
O          -1.41904426     -0.26924753     -1.92361654
H          -2.15527416      0.23917007     -1.51181045
O           1.37504544     -0.48402701      0.27843858
C           2.60265930      0.16345204      0.32716635
C           2.84155415      1.55052607      0.46372280
C           3.67635192     -0.73897291      0.31151487
C           4.15528430      2.01295932      0.61308985
C           4.98026028     -0.26177570      0.44899882
H           3.47069255     -1.80203894      0.18833690
C           5.21734260      1.10861439      0.60407882
H           4.33804328      3.08381360      0.75126895
H           5.81426459     -0.96234786      0.43200971
H           6.23791200      1.47565229      0.71876306
O           1.73411919      2.37824535      0.49668168
C           1.93764421      3.77669863      0.13720386
H           1.92323363      3.85103989     -0.95176818
H           1.08290081      4.27484833      0.61133172
H           2.86725102      4.18068293      0.56369951
C          -0.37553896      4.26058049      6.16567376
H          -1.22253632      4.40461303      5.47079839
H          -0.72419515      3.71429413      7.06342070
C           0.82770474      3.55379865      5.50095284
H           1.54204145      4.35267388      5.14241136
H           1.40238122      2.98371161      6.26057286
C           1.75379551      2.09217129      3.74737196
H           1.55054414      1.38006721      2.92535515
H           2.37829749      2.91091279      3.30681710
H           2.36745034      1.58178630      4.50302914
C          -0.27860607      3.41264547      3.26485496
H          -0.07476072      2.99406124      2.25265213
H          -1.36785832      3.39573684      3.42298674
H           0.04660903      4.48405072      3.21910997
C          -0.38105391      1.49085729      4.80524770
H          -0.62681761      0.80514494      3.95687434
H           0.13758096      0.88744481      5.56642509
H          -1.33573435      1.83465586      5.23386043
N           0.47207640      2.64695105      4.33145408
O           0.06031809      5.50229381      6.66577121
H           0.33472883      6.13782799      5.88316319
Cl          2.43435971      5.32965910      2.90893435
C          -0.20217445      7.01804386      3.55948950
H          -0.97604988      7.64645680      4.03513474
H          -0.62250052      6.01673384      3.33657706
C           0.37733640      7.67604235      2.29725283
H           1.33126389      8.18982327      2.52053641
H           0.54547108      6.95648284      1.47555850
O           0.82415817      6.87710286      4.53833960
H           1.67195356      6.34081461      4.06518599
O          -0.57383999      8.59778140      1.74547764
H          -0.63742045      9.39501615      2.30733083
C          -8.71274578     -4.58739472      3.88324616
H          -9.39536127     -5.24534110      3.31712105
H          -7.67998467     -4.97701244      3.83121683
C          -8.79106542     -3.13255288      3.41283449
H          -8.91401307     -3.05353694      2.31684096
H          -9.60728003     -2.59279132      3.93217649
O          -9.14205564     -4.54532095      5.25943341
H          -9.04976915     -5.42663444      5.66984990
O          -7.54581700     -2.46408733      3.65453672
H          -7.40317662     -2.36731140      4.62255549
          85
 Energy =     -0.80945897 a.u.  #Cluster:   34
C          -2.95391902      2.36639068     -1.88360981
C          -1.68342084      2.19764575     -1.32282430
C          -1.49948367      1.37779593     -0.20563609
C          -2.59176765      0.72114661      0.39047623
C          -3.85445834      0.87087550     -0.17104102
C          -4.03268625      1.68634524     -1.32134196
H          -3.11350858      3.00584263     -2.75832393
H          -0.82934226      2.71748810     -1.77264545
H          -2.42563903      0.14329944      1.30222305
O          -5.26011105      1.83941974     -1.92826985
H          -5.93649933      1.23562855     -1.51339678
O          -5.03209352      0.29389209      0.26110017
C          -4.93165919     -0.71559374      1.29676879
H          -5.97903493     -1.02225144      1.41282568
H          -4.30816731     -1.54736772      0.95595363
H          -4.54755079     -0.26933277      2.21992018
C          -0.10901985      1.18794860      0.35593725
H           0.47247453      2.14359835      0.32048917
C           0.65879616      0.08663882     -0.41989536
H           0.76832635      0.34688531     -1.49807022
C           0.07375880     -1.32382068     -0.22380294
H           0.83512339     -2.10543983     -0.41067153
H          -0.36061026     -1.44821201      0.78707982
O          -0.24696323      0.77456195      1.72033058
H           0.56812655      1.06471821      2.21845407
O          -0.93670946     -1.58084009     -1.21755136
H          -1.72902442     -1.01327099     -1.05838031
O           1.96756584     -0.09224653      0.19864456
C           3.04195330      0.66888976     -0.17342209
C           3.09072049      1.71013467     -1.13529188
C           4.22747294      0.25815745      0.46600157
C           4.31353676      2.29614218     -1.46988520
C           5.43867050      0.85920322      0.12584609
H           4.16934347     -0.52103163      1.22447713
C           5.48879208      1.85925939     -0.84952312
H           4.34349171      3.06841550     -2.23415394
H           6.35446524      0.52569056      0.61071212
H           6.44529261      2.27440885     -1.15199810
O           1.91375514      2.06672917     -1.78245038
C           1.59564112      3.48375727     -1.72491348
H           2.21744772      4.02637870     -2.43772144
H           0.53391564      3.48726629     -2.02821676
H           1.71321626      3.86223594     -0.70186983
C           6.14401261      4.79725830      0.35652649
H           6.75368175      3.92182761      0.66484179
H           5.90393789      4.69839212     -0.72050042
C           4.85905333      4.94544000      1.17168558
H           4.39264127      5.93793920      0.99366760
H           4.10102734      4.18363936      0.79981400
C           3.71165298      4.96011335      3.35225331
H           3.74742787      4.77763743      4.42977035
H           3.28918428      5.94973402      3.16131314
H           2.92350939      4.17849326      2.91934599
C           6.04222298      5.72073510      3.23090919
H           6.21707669      5.55323963      4.30521724
H           7.01692897      5.65017004      2.70405822
H           5.69605264      6.76015625      3.10390940
C           5.50403515      3.32486095      2.94482144
H           5.55241830      3.11420966      4.02443669
H           4.78002690      2.58395700      2.51171430
H           6.48924676      3.12683010      2.49673985
N           5.03419604      4.73786558      2.67515780
O           7.02965505      5.90289459      0.56569080
H           6.75348255      6.68121641      0.04004727
Cl          2.35280666      2.85080792      1.79018962
C          -0.93252706     -3.25740117     -4.06953260
H          -0.68933298     -3.51005812     -5.11837623
H          -2.03072460     -3.19330882     -3.94805258
C          -0.31695040     -4.24295913     -3.07227038
H          -0.33423393     -5.28156215     -3.45204705
H           0.71997375     -3.96023005     -2.81113551
O          -0.37247584     -1.94020502     -3.91739129
H          -0.43466475     -1.65147995     -2.96106587
O          -1.10337105     -4.32134696     -1.87799941
H          -1.14331508     -3.42600959     -1.44691086
C          -3.85318051      1.14910627     -5.37959735
H          -3.49462841      1.56292395     -6.34162913
H          -4.64372257      0.40528026     -5.57344224
C          -2.69418478      0.55182252     -4.56813447
H          -1.93949373      1.31822186     -4.31373606
H          -3.04160020      0.05482916     -3.64663918
O          -4.39695163      2.28585760     -4.70417563
H          -4.84397687      2.01668106     -3.86299070
O          -2.10800956     -0.41663540     -5.44859060
H          -1.37702409     -0.90445112     -4.96339762
          85
 Energy =     -0.80933015 a.u.  #Cluster:   35
C          -3.36837278      2.62676791     -1.04291709
C          -2.13964486      2.13278476     -0.58714896
C          -2.07068279      0.91729445      0.10140296
C          -3.23268163      0.16826352      0.35963838
C          -4.45240617      0.65171709     -0.09272685
C          -4.52505212      1.88899362     -0.79318175
H          -3.43790640      3.57616355     -1.57223595
H          -1.23462374      2.71395093     -0.76837727
H          -3.15314534     -0.76762029      0.91823163
O          -5.72278760      2.37780779     -1.24643052
H          -6.47025590      1.78911761     -0.92609164
O          -5.67968208      0.02487281      0.00940898
C          -5.86337216     -0.86673913      1.13907774
H          -6.95487417     -1.03541376      1.11334719
H          -5.31100100     -1.79316420      0.96657874
H          -5.56237023     -0.38124962      2.07058415
C          -0.72753026      0.38811480      0.53726957
H          -0.13971307      1.15085497      1.10931086
C           0.08778146     -0.10259135     -0.68665607
H           0.39323126      0.74930752     -1.33337307
C          -0.62595744     -1.19481467     -1.49680000
H           0.10177048     -1.94408398     -1.87125871
H          -1.42134208     -1.69973746     -0.91946189
O          -0.95914348     -0.72658526      1.41739386
H          -0.08663223     -1.16932547      1.58558599
O          -1.18079296     -0.61935986     -2.69346574
H          -1.92755327     -0.01788102     -2.46098051
O           1.24302188     -0.78016298     -0.11816707
C           2.48096873     -0.20558613     -0.40357085
C           2.78768560      1.15235650     -0.14224859
C           3.45632393     -1.07257296     -0.89891926
C           4.07774053      1.63345623     -0.38112298
C           4.74775392     -0.58548117     -1.11815046
H           3.20525345     -2.11435408     -1.12965655
C           5.05163789      0.75592675     -0.87217183
H           4.33394209      2.67218553     -0.19740941
H           5.51731150     -1.25490878     -1.50828017
H           6.05952552      1.12498473     -1.09297736
O           1.71496287      1.90448406      0.30664581
C           1.97140911      3.28279035      0.66894784
H           2.29023281      3.85077024     -0.21001523
H           0.98490238      3.61174811      1.01956239
H           2.70909957      3.33176334      1.47543816
C           2.24510735     -3.13124755     -3.82801970
H           1.60436331     -3.69493292     -3.12421337
H           2.38750667     -3.71686432     -4.75759409
C           1.68799144     -1.71937699     -4.11337664
H           1.19841741     -1.30970918     -3.19775013
H           2.56627889     -1.03379524     -4.29350885
C           0.32238829     -0.17860306     -5.46245024
H          -0.35367321     -0.03989908     -6.31790478
H          -0.17819849      0.20138903     -4.54828453
H           1.21898115      0.46290371     -5.64592647
C          -0.51300178     -2.44867579     -5.01260152
H          -1.22634277     -2.40144641     -5.85023149
H          -0.27014420     -3.50710586     -4.83351687
H          -1.04782453     -2.06515281     -4.11151739
C           1.37591902     -2.12624160     -6.55822707
H           0.67864992     -2.13208754     -7.40726827
H           2.23944768     -1.47109928     -6.85108826
H           1.79931835     -3.13801282     -6.42909687
N           0.72792016     -1.62756734     -5.28939504
O           3.46988421     -2.98296507     -3.15385457
H           4.19197538     -2.54463606     -3.79951347
Cl          3.73975600      0.20552160     -6.11124044
C          -9.68859709     -1.77735591      0.07824426
H          -8.88468473     -2.02531946     -0.63956714
H         -10.45429293     -1.16416809     -0.42988991
C         -10.30545954     -3.02432727      0.73048671
H          -9.53828942     -3.72763692      1.09621708
H         -10.98207379     -2.76219930      1.56677948
O          -9.01055658     -1.00457981      1.07552382
H          -9.65374427     -0.55801340      1.66368843
O         -11.17562794     -3.67017277     -0.20313803
H         -10.65896164     -4.12074120     -0.90151622
C           6.29408027     -1.39532984     -4.39446726
H           7.07525352     -1.61982547     -5.14314877
H           6.50081382     -1.96488706     -3.46922422
C           6.18275998      0.11072787     -4.11205692
H           6.29992254      0.72697417     -5.02024069
H           5.21726689      0.37167454     -3.63419171
O           5.06917376     -1.90851739     -4.91011987
H           4.53307362     -1.09473554     -5.49548592
O           7.16043542      0.49076107     -3.12749041
H           8.05540543      0.46510967     -3.51324594
          85
 Energy =     -0.80728860 a.u.  #Cluster:   36
C          -2.80152176      2.92779743     -0.89341081
C          -1.57850495      2.32926464     -0.56738535
C          -1.54430718      1.11881828      0.13094207
C          -2.73289304      0.48420879      0.53142003
C          -3.94981469      1.07979231      0.22099618
C          -3.98773979      2.30578417     -0.50443237
H          -2.84268529      3.86619177     -1.44621702
H          -0.65285401      2.81697553     -0.87156630
H          -2.67158663     -0.45100956      1.09079143
O          -5.15804649      2.92160245     -0.84563023
H          -5.99508909      2.36966423     -0.57846649
O          -5.20621397      0.61896917      0.54815954
C          -5.29758751     -0.67345464      1.19585115
H          -6.38522855     -0.78673405      1.30220193
H          -4.87966298     -1.45179519      0.55089082
H          -4.80484922     -0.64149684      2.17200510
C          -0.20668570      0.50229659      0.45299896
H           0.42814728      1.22181537      1.03295233
C           0.54048935      0.05276899     -0.82489507
H           0.75182724      0.91975452     -1.49003724
C          -0.15643072     -1.07287989     -1.60916034
H           0.58051913     -1.66417459     -2.19009332
H          -0.74389599     -1.74050747     -0.95456449
O          -0.42575959     -0.62832559      1.32517935
H           0.31458803     -1.26695883      1.21387042
O          -0.99371039     -0.49548073     -2.60960433
H          -1.76458665     -0.04346288     -2.19469180
O           1.78157033     -0.54453247     -0.32904465
C           2.96148010      0.10241587     -0.68061493
C           3.18162974      1.48709401     -0.47027879
C           3.99275203     -0.71509124     -1.14655959
C           4.43171811      2.04439133     -0.74603889
C           5.24493086     -0.14874370     -1.40882569
H           3.83035336     -1.79458420     -1.26075948
C           5.45974839      1.21650021     -1.21633066
H           4.61656644      3.10445579     -0.59804341
H           6.05954640     -0.80156235     -1.75430982
H           6.43879297      1.64968664     -1.42802987
O           2.09680582      2.16783894      0.05272943
C           2.12862798      3.61624793      0.00229035
H           2.25075189      3.95845542     -1.02985597
H           1.13556285      3.87717564      0.39394591
H           2.91941419      3.99888466      0.65319029
C           5.19639850     -1.94281981      4.81443872
H           5.26208129     -2.97285752      4.42051820
H           6.09605924     -1.37528600      4.49227478
C           3.87447996     -1.22775416      4.45437478
H           3.02098222     -1.81160517      4.86471335
H           3.86358204     -0.24955716      4.99185467
C           2.40031538     -0.16208926      2.80203981
H           2.16589647     -0.00231641      1.72416096
H           1.51715404     -0.64850431      3.25049862
H           2.50375040      0.83802936      3.25153067
C           3.46298719     -2.30384698      2.24434991
H           3.34794700     -2.16423213      1.14275701
H           4.37010808     -2.95720246      2.31569848
H           2.60198644     -2.86785849      2.62019778
C           4.81459487     -0.23100944      2.36756436
H           4.71560663     -0.13102578      1.26942015
H           4.92220619      0.76988467      2.80489058
H           5.78539283     -0.77618155      2.50582524
N           3.65691297     -0.99356753      2.96298422
O           5.24354850     -1.91924447      6.24405394
H           5.00192737     -2.79246068      6.61350313
Cl          6.89515018     -2.85809286      2.35700550
C           7.02663399     -3.19082142     -1.24881639
H           6.86819758     -2.24816789     -1.81066530
H           7.67620240     -2.98705244     -0.37534634
C           5.69683582     -3.83486048     -0.81839553
H           4.95877201     -3.85572945     -1.63798740
H           5.85263409     -4.86363169     -0.44717172
O           7.70515041     -4.03681941     -2.18756451
H           8.07618297     -4.81561329     -1.72761702
O           5.11734022     -3.04362272      0.20361723
H           5.83663497     -2.98778077      1.05555466
C          -7.48672483      4.80703885      0.34902858
H          -7.66232001      4.98877036     -0.72771399
H          -8.01478343      5.57881797      0.94406776
C          -7.90975510      3.39318822      0.76343909
H          -7.28946145      3.01054506      1.60067831
H          -8.97781119      3.33201470      1.03368765
O          -6.11564593      5.04868021      0.65286336
H          -5.53869732      4.41232798      0.13679751
O          -7.65969040      2.42601176     -0.28048880
H          -8.11843325      2.68548945     -1.10948319
          85
 Energy =     -0.80700521 a.u.  #Cluster:   37
C          -4.14828061      2.26025998     -0.71994633
C          -2.91298652      1.67310930     -0.43404836
C          -2.84415402      0.41541695      0.17876380
C          -4.01636334     -0.23092357      0.61092131
C          -5.24115647      0.38521518      0.39006270
C          -5.31510163      1.61311981     -0.31415426
H          -4.21640403      3.25792080     -1.18169493
H          -1.99968474      2.23929155     -0.64953211
H          -3.96162636     -1.19398831      1.12511950
O          -6.52331464      2.17142564     -0.63804539
H          -7.25167867      1.69781473     -0.12773268
O          -6.46081730     -0.13490492      0.81196297
C          -6.61179606     -0.06940208      2.26262475
H          -7.68127207     -0.25434155      2.39742517
H          -6.00608832     -0.85474782      2.72077452
H          -6.31671896      0.92549789      2.63234587
C          -1.51319517     -0.24055544      0.45362851
H          -1.05350954      0.16705523      1.39450784
C          -0.50869467     -0.12767579     -0.72145703
H          -0.45034198      0.92114356     -1.09045965
C          -0.74754092     -1.13481614     -1.86457088
H          -0.54950231     -0.69970714     -2.86167223
H          -0.11290919     -2.03392055     -1.72728349
O          -1.81190294     -1.64885823      0.65177681
H          -1.01110712     -2.10361799      1.00277673
O          -2.12412161     -1.53820626     -1.92773854
H          -2.36542362     -1.97257119     -1.03415925
O           0.77650515     -0.56551175     -0.19227024
C           1.78140971      0.38376162     -0.05067100
C           1.58235930      1.72973111      0.35982344
C           3.06872783     -0.11179601     -0.25990662
C           2.68805004      2.56440452      0.54138978
C           4.16923098      0.72890495     -0.04956616
H           3.20058835     -1.14746468     -0.56819863
C           3.97686021      2.05398137      0.34254056
H           2.55493432      3.60224912      0.84280924
H           5.17499000      0.33940298     -0.19471748
H           4.83805924      2.70356938      0.50017881
O           0.26928317      2.08587566      0.53356877
C          -0.03400328      3.40643635      1.06324144
H          -0.07711439      4.12149121      0.23518902
H          -1.05343662      3.24054316      1.47987912
H           0.65925657      3.70743319      1.84707676
C          -2.22697663     -1.09580712     -5.02958077
H          -1.74082704     -1.47146948     -5.95509352
H          -1.45632080     -0.66232190     -4.36056362
C          -3.32667311     -0.08852422     -5.41809956
H          -2.96717229      0.54174648     -6.26162532
H          -4.19759643     -0.67301971     -5.80745182
C          -4.83245531      1.77723168     -4.85180595
H          -5.08428128      2.57631104     -4.10828349
H          -4.44947765      2.31688741     -5.73298505
H          -5.76655515      1.26467639     -5.12760911
C          -2.65116308      1.61505162     -3.72509578
H          -3.02393042      2.46832764     -3.10258446
H          -2.00864189      0.99748110     -3.07307700
H          -2.03992460      2.07330592     -4.51719741
C          -4.44887111     -0.00199618     -3.19189936
H          -5.12393664      0.61363098     -2.56470047
H          -5.02866243     -0.84925433     -3.59296696
H          -3.68436567     -0.43634544     -2.49927867
N          -3.80559329      0.81652519     -4.28600018
O          -2.82068572     -2.24384389     -4.44304214
H          -2.65645450     -2.24404329     -3.44543011
Cl         -2.92016944      4.69305721      0.55566661
C          -2.10693154      5.33654141     -2.55533260
H          -1.60006174      4.40197023     -2.25271707
H          -1.60108522      5.76208789     -3.43966170
C          -3.60420456      5.09691777     -2.82196814
H          -4.07775317      4.47112960     -2.03046880
H          -4.16291193      6.04227244     -2.90569400
O          -1.97714548      6.30960470     -1.54765726
H          -2.32553997      5.88673168     -0.60772498
O          -3.77016513      4.31508404     -4.03268685
H          -3.57308051      4.87387360     -4.80620495
C          -3.98348047      2.98027364      3.67507337
H          -4.44760476      2.44504345      4.52350007
H          -3.98289971      4.07032063      3.86116270
C          -2.57372908      2.46469193      3.37368597
H          -2.20441663      2.84695301      2.39031517
H          -1.85073675      2.71568123      4.16874202
O          -4.86108744      2.68640399      2.58051158
H          -4.59351096      3.22934087      1.78403099
O          -2.54675598      1.02910132      3.33260956
H          -3.30011950      0.71851518      2.77804544
          85
 Energy =     -0.80632989 a.u.  #Cluster:   38
C          -2.43260779      2.99808879     -0.29933691
C          -1.39314900      2.25205156      0.26648069
C          -1.65140339      1.06916249      0.97211197
C          -2.96993304      0.61859619      1.11271963
C          -4.00966574      1.34021121      0.53946254
C          -3.74597661      2.53913610     -0.16876365
H          -2.23894375      3.91566868     -0.85056815
H          -0.36329727      2.59313828      0.14536769
H          -3.18966336     -0.29840830      1.66317332
O          -4.75474718      3.28289302     -0.73126887
H          -5.62662692      2.80446591     -0.61267418
O          -5.35207049      1.00572537      0.64828980
C          -5.64233479     -0.41695338      0.55089295
H          -6.72333018     -0.44214545      0.72210320
H          -5.37794645     -0.77584355     -0.44838334
H          -5.10196374     -0.98159536      1.32166232
C          -0.50045682      0.28087032      1.57213182
H           0.19996745      0.96370233      2.12705900
C           0.30534943     -0.42728690      0.45245290
H           0.34166497      0.20281986     -0.46173187
C          -0.13187223     -1.86105676      0.10247635
H           0.62989920     -2.35270919     -0.53221333
H          -0.31718057     -2.47268174      1.00388582
O          -0.93969364     -0.61212917      2.57279761
H          -1.63227326     -1.42075345      2.20372689
O          -1.29470908     -1.80295960     -0.72372091
H          -2.10774384     -1.80181165     -0.16116486
O           1.65195758     -0.60722806      1.00584648
C           2.67792255      0.09007363      0.39032253
C           2.81812459      1.50014225      0.49946473
C           3.67323918     -0.66571575     -0.22985253
C           3.96245039      2.12610608      0.00005941
C           4.81630119     -0.02906135     -0.72889305
H           3.57104273     -1.75531156     -0.29188223
C           4.95703875      1.35345098     -0.61277218
H           4.10248386      3.20106351      0.11016491
H           5.59687948     -0.62570631     -1.19816065
H           5.85110148      1.84388917     -0.99412808
O           1.76871430      2.14229570      1.12335155
C           1.84675746      3.58549434      1.23880629
H           1.72719728      4.03991923      0.25105526
H           0.99865500      3.80773300      1.89667594
H           2.79471935      3.89749405      1.69381367
C          -0.75595236     -2.95813007      4.46198986
H          -0.96612756     -3.90933880      3.93211126
H          -0.45222140     -2.19435552      3.69863292
C          -1.94746567     -2.53989897      5.32839297
H          -2.89139514     -2.87745401      4.81770820
H          -1.89543422     -3.08559440      6.29533681
C          -2.63737956     -0.84613091      6.98770238
H          -2.77692061      0.22305904      7.22646744
H          -3.62703915     -1.32923473      7.07079663
H          -1.98083566     -1.27102556      7.76595608
C          -2.96961842     -0.37245868      4.60132521
H          -3.27872610      0.63316461      4.91116384
H          -2.43994427     -0.25441048      3.60166704
H          -3.86085934     -0.98421540      4.38024316
C          -0.69759830     -0.36101692      5.54576921
H          -0.72891458      0.66665035      5.92888003
H           0.07049652     -0.94078496      6.09042798
H          -0.34286502     -0.30307267      4.47509007
N          -2.05015611     -1.03218361      5.60118777
O           0.41687358     -3.09159858      5.28660208
H           0.38003917     -3.91164805      5.82198365
Cl         -2.78660335     -2.63962492      2.27326149
C           3.09255153      6.48292905     -1.24919008
H           2.38525770      5.77155371     -1.70785765
H           2.56617624      7.05634948     -0.46062683
C           4.35112938      5.79515318     -0.69845041
H           4.57010504      4.83064644     -1.19555253
H           5.23319976      6.45664256     -0.77180510
O           3.46787435      7.48998993     -2.19359873
H           3.74600378      7.08302732     -3.03930203
O           4.12198517      5.41496813      0.66550737
H           4.21277599      6.19202641      1.25562139
C           2.55129046     -3.13778980      2.27947143
H           1.96910563     -2.19849669      2.34856987
H           2.20426337     -3.71127689      1.39879213
C           4.06277386     -2.88668887      2.21882055
H           4.32038086     -1.81165448      2.18951776
H           4.58008538     -3.37518123      3.06378111
O           2.29498795     -3.98391273      3.41042453
H           1.78445380     -3.48799439      4.09736445
O           4.59831877     -3.37522363      0.97742153
H           4.50612879     -4.34852247      0.93280156
          85
 Energy =     -0.80353382 a.u.  #Cluster:   39
C          -3.02112366      3.16204983      0.15199473
C          -1.72975405      2.85477236      0.60177187
C          -1.45989649      1.61666386      1.18646979
C          -2.48256380      0.66273756      1.36451520
C          -3.76174010      0.96326785      0.92172477
C          -4.03473421      2.21753657      0.29961342
H          -3.24267048      4.12848120     -0.30279275
H          -0.93619448      3.61253745      0.50772370
H          -2.25131149     -0.27621192      1.86631571
O          -5.27608903      2.53063281     -0.18698433
H          -5.94393781      1.83324486      0.06842145
O          -4.88497330      0.16236515      1.00554953
C          -4.71210486     -1.16354368      1.56091247
H          -5.73664293     -1.55615705      1.52345525
H          -4.03977163     -1.75040784      0.92856046
H          -4.35268358     -1.09948412      2.59285163
C          -0.05291197      1.29485362      1.61895043
H           0.46814421      2.20299244      2.05054855
C           0.78245577      0.72615589      0.45410371
H           1.10482793      1.55297529     -0.22749753
C           0.12540831     -0.40515613     -0.35412132
H           0.88554725     -1.09746144     -0.76576355
H          -0.61201207     -0.97876316      0.23310529
O          -0.13251325      0.34465619      2.71181840
H           0.59831702     -0.31454319      2.64748948
O          -0.48550702      0.15005606     -1.51891602
H          -1.28859949      0.66660908     -1.26850466
O           1.94060762      0.15439105      1.15120967
C           3.09267114      0.05522164      0.38192379
C           3.78685642      1.19493071     -0.08084812
C           3.59590653     -1.22839177      0.14338550
C           4.95667499      1.04415341     -0.83322453
C           4.77615689     -1.36726763     -0.59151763
H           3.06216128     -2.09660984      0.52720398
C           5.44359087     -0.24090182     -1.08704014
H           5.47849601      1.92428800     -1.20495848
H           5.17267891     -2.36339586     -0.78896545
H           6.35298347     -0.36640769     -1.67495814
O           3.34583514      2.44075772      0.33261373
C           2.78201638      3.28393852     -0.71093242
H           3.54719930      3.55470182     -1.43684595
H           1.92927036      2.77145676     -1.17483980
H           2.42416970      4.15345105     -0.12559180
C           2.23208336      3.94201369      5.86875573
H           1.47739897      4.66316764      6.23333146
H           1.74036321      2.94018108      5.76937180
C           2.85139693      4.43909302      4.56408710
H           2.01363968      4.82769941      3.88482069
H           3.51742137      5.30613740      4.74737368
C           4.17524985      4.00266651      2.53066716
H           4.64804008      3.25037966      1.87178498
H           3.34464521      4.44122702      1.91328901
H           4.89293451      4.80204999      2.74793546
C           2.70132669      2.23673286      3.40612551
H           3.20041860      1.48739651      2.76907115
H           2.26579034      1.74456254      4.29526880
H           1.83554589      2.61709485      2.79232383
C           4.76543166      2.83310454      4.61191905
H           5.27290600      2.00037101      4.10074548
H           5.51164593      3.61397841      4.82520360
H           4.40490637      2.46455162      5.59894633
N           3.61750880      3.37198199      3.78611289
O           3.23602047      3.72642667      6.86893568
H           3.49736321      4.56682362      7.29143867
Cl          0.91520343      4.72702171      1.93255115
C          -2.27858664      2.44126884      4.47238496
H          -2.19944708      1.48755780      3.91423179
H          -2.84625685      2.27429115      5.40500119
C          -0.89293632      3.05099266      4.71890836
H          -0.55857276      3.66615693      3.85549000
H          -0.85177954      3.65740415      5.63831768
O          -3.10341653      3.35860438      3.75063507
H          -2.70311077      3.56330769      2.87260499
O           0.07099119      2.00949889      4.95296208
H           0.01437728      1.33138998      4.21732472
C          -5.25111534      2.17794125     -6.73018144
H          -6.24695413      2.39124545     -6.30834784
H          -5.37685484      1.62448820     -7.68118715
C          -4.40545293      3.44654823     -6.92446306
H          -4.67411602      4.25573300     -6.22003902
H          -3.32665710      3.22172625     -6.83586074
O          -4.54619960      1.25045035     -5.89856619
H          -4.56565734      1.54159230     -4.96340016
O          -4.68864787      4.02713004     -8.20173715
H          -4.32521173      3.46914024     -8.91921835
          85
 Energy =     -0.80134674 a.u.  #Cluster:   40
C          -3.26445695      2.42832369     -0.74556986
C          -2.06841156      1.91887868     -0.22686928
C          -2.06087179      0.73237542      0.51444303
C          -3.25277391      0.02486868      0.75012295
C          -4.44144915      0.52462606      0.23519712
C          -4.45253329      1.73544107     -0.51037440
H          -3.28704079      3.35482811     -1.31781551
H          -1.13706474      2.45956346     -0.40428959
H          -3.21740495     -0.89166918      1.34493896
O          -5.61188257      2.25350722     -1.02918844
H          -6.39383575      1.70200862     -0.73841145
O          -5.69125073     -0.06689524      0.32183800
C          -5.89263232     -0.99170321      1.42052743
H          -6.96957914     -1.19002234      1.35538910
H          -5.31069927     -1.90203990      1.24775078
H          -5.63058300     -0.51963893      2.37256076
C          -0.75617482      0.20193766      1.05103817
H          -0.17157546      1.00077459      1.57651307
C           0.10911138     -0.42627801     -0.07286774
H           0.41712102      0.33365846     -0.82371151
C          -0.53362159     -1.64873626     -0.74197985
H           0.24631114     -2.33446894     -1.14205113
H          -1.20013652     -2.20065250     -0.05574994
O          -1.07009918     -0.81115772      2.02590982
H          -0.22609949     -1.27120331      2.27113483
O          -1.27587874     -1.23926640     -1.90433327
H          -1.97080261     -0.58928615     -1.65273714
O           1.25651644     -0.98062278      0.63250527
C           2.48688020     -0.38268574      0.41007702
C           2.71217587      1.01820507      0.45352537
C           3.55414647     -1.26689815      0.24284112
C           4.01561592      1.51278842      0.37506229
C           4.85558829     -0.75927799      0.15909983
H           3.35138029     -2.34353548      0.17056144
C           5.08240311      0.61574105      0.23077655
H           4.21162968      2.58047207      0.42782485
H           5.68911303     -1.44862654      0.02621089
H           6.09761573      1.00482933      0.16664642
O           1.56666913      1.78724702      0.54816398
C           1.73145074      3.20619112      0.79761148
H           2.22406761      3.68263351     -0.05286985
H           0.69206855      3.53930602      0.89890181
H           2.28746207      3.36527328      1.73410689
C           0.40716373     -2.64345735     -4.29401456
H          -0.01230737     -2.15317008     -5.19046913
H           0.06073832     -2.12332440     -3.37498193
C           0.12052905     -4.15864471     -4.25408329
H           0.59838628     -4.64210497     -5.13307081
H           0.65000827     -4.59623459     -3.35390095
C          -1.42490730     -6.04566290     -3.98430447
H          -2.46111637     -6.40225093     -3.91588182
H          -0.91104574     -6.59169806     -4.78667529
H          -0.91810550     -6.31766584     -3.00534857
C          -2.06091906     -4.15548902     -5.44792094
H          -3.10543052     -4.50800189     -5.45331829
H          -2.08436847     -3.05682965     -5.56954680
H          -1.55834029     -4.57685452     -6.33526773
C          -2.01927285     -3.88405260     -2.99527443
H          -3.08258849     -4.13589284     -2.92142907
H          -1.51677343     -4.22696684     -2.03562596
H          -1.91209409     -2.77813892     -3.00580048
N          -1.34855995     -4.54422564     -4.17142860
O           1.80961058     -2.49185079     -4.44962844
H           2.28067432     -2.70715036     -3.58984131
Cl          2.18008201     -4.03040303     -1.54060423
C           5.27900439      2.40892445      4.92101005
H           5.77045255      1.92739952      4.05516043
H           5.86083076      3.29252127      5.23174847
C           3.81102669      2.73809611      4.62413595
H           3.13735462      2.08734715      5.21788618
H           3.56533169      3.79908195      4.80888526
O           5.21420818      1.47584821      6.01794256
H           6.11260594      1.20895787      6.29038830
O           3.54613871      2.58086125      3.22655884
H           3.57336428      1.62899221      2.97089107
C           0.76054473     -6.81881711      0.26154586
H           0.67820891     -7.86671688     -0.06950241
H           1.71273802     -6.39014666     -0.10980139
C          -0.44287194     -5.96178113     -0.16725625
H          -1.36683490     -6.55665161     -0.25561860
H          -0.61322246     -5.13905928      0.55344340
O           0.79118083     -6.92036183      1.69302774
H           1.08342968     -6.06824207      2.07788551
O          -0.20863874     -5.41415025     -1.44962673
H           0.81100262     -4.83880097     -1.44645395
          85
 Energy =     -0.80066044 a.u.  #Cluster:   41
C          -2.83900326      2.49666379     -0.90240411
C          -1.66632584      1.83734144     -0.51500541
C          -1.72638083      0.61459485      0.16226966
C          -2.96403846      0.02636330      0.47476543
C          -4.13068902      0.68095380      0.10034986
C          -4.07173328      1.92316371     -0.59034837
H          -2.80742849      3.44851504     -1.43265321
H          -0.70304084      2.29523942     -0.74173323
H          -2.98123411     -0.92687503      1.00763520
O          -5.20470023      2.59388591     -0.97387767
H          -6.01832194      2.10818290     -0.65599383
O          -5.42692024      0.23644285      0.29624443
C          -5.61988003     -0.77987459      1.31152027
H          -6.71391123     -0.85442024      1.35076237
H          -5.17037439     -1.72198567      0.98293643
H          -5.20765188     -0.44778020      2.26912503
C          -0.44670656     -0.07220253      0.56819091
H           0.13473840      0.55586467      1.29452483
C           0.43501627     -0.41781733     -0.65509280
H           0.83722021      0.50809522     -1.14556095
C          -0.24672177     -1.30709414     -1.70725986
H           0.45985791     -2.05716739     -2.11139674
H          -1.14707520     -1.81199751     -1.31584773
O          -0.79652306     -1.29368105      1.24883981
H           0.03054018     -1.82295547      1.36816862
O          -0.57348026     -0.49547354     -2.84043291
H          -1.36585575      0.05752429     -2.64541751
O           1.51528985     -1.24268536     -0.12717707
C           2.77295565     -0.66146540     -0.03523165
C           3.03592309      0.68780234      0.30455548
C           3.82924636     -1.55627312     -0.24177974
C           4.35843391      1.13339648      0.39710408
C           5.14557882     -1.10714382     -0.11650121
H           3.60589762     -2.58745545     -0.49805215
C           5.40624838      0.23061180      0.19021620
H           4.57514151      2.17086835      0.64176809
H           5.98073034     -1.81647078     -0.25335893
H           6.43837068      0.57412238      0.27464406
O           1.92067715      1.46945476      0.54918900
C           2.09364646      2.90914761      0.46831630
H           2.48481446      3.18289717     -0.52431491
H           1.06666910      3.26609536      0.60920928
H           2.74373331      3.25626423      1.27460028
C           6.07743336     -4.51628164      0.55298207
H           5.39927432     -4.01158073      1.27208949
H           6.64623683     -5.31275371      1.08154692
C           5.26911977     -5.08479749     -0.64022893
H           4.19064261     -4.85035026     -0.52484668
H           5.61178764     -4.53932145     -1.56292665
C           4.70835562     -6.96775655     -2.12889168
H           4.79207794     -8.04714010     -2.33955098
H           3.63727208     -6.71084975     -2.08340031
H           5.14478417     -6.43431660     -2.99958676
C           4.82418967     -7.33552248      0.31181388
H           4.85393102     -8.42734119      0.15797160
H           5.38447516     -7.12968398      1.24652946
H           3.77467133     -7.04309487      0.48175139
C           6.87977988     -6.98912037     -0.98455357
H           7.01803010     -8.07720747     -1.00398133
H           7.35261289     -6.55970446     -1.89499834
H           7.50521190     -6.58890053     -0.13026082
N           5.43628512     -6.58763274     -0.85434065
O           6.96407872     -3.53479933      0.11023385
H           7.52500016     -3.82017359     -0.94929798
Cl          8.13158631     -4.25765726     -2.27510742
C           1.77057824      1.67521639     -4.55088326
H           2.81555677      1.79468487     -4.88907680
H           1.40489728      0.65598805     -4.77074699
C           1.61277572      2.05125559     -3.07457072
H           1.03319135      2.99490902     -2.97842169
H           1.12675926      1.24281556     -2.48459960
O           0.92913936      2.62093985     -5.24405699
H           1.03714608      2.52301690     -6.20816554
O           2.87867187      2.37826187     -2.48772494
H           3.43147071      1.57595749     -2.37810180
C          10.10606172     -4.22371688      0.87693885
H          10.99878183     -4.07472750      1.50914047
H          10.16064256     -3.58178471     -0.02039442
C           9.89494107     -5.70858811      0.50371467
H           9.64277965     -5.83790197     -0.56458429
H          10.75908381     -6.34018278      0.76678010
O           9.01471792     -3.82423612      1.70850882
H           8.21662639     -3.51606860      1.10800154
O           8.77125182     -6.24240941      1.23573977
H           8.50501277     -5.53168843      1.92128888
          85
 Energy =     -0.79928180 a.u.  #Cluster:   42
C          -3.47665650      1.76596962     -1.65431338
C          -2.23213881      1.30609287     -1.21873956
C          -2.14014131      0.38674609     -0.16344223
C          -3.30037093     -0.02484807      0.50527592
C          -4.54969846      0.39515487      0.05179525
C          -4.63446434      1.28767342     -1.03356947
H          -3.54699698      2.46393913     -2.48424807
H          -1.31922951      1.64175759     -1.72410774
H          -3.21624230     -0.72227490      1.35533788
O          -5.90812128      1.69981418     -1.44824521
H          -5.95291846      1.66990364     -2.43525696
O          -5.74787740      0.00561282      0.63950867
C          -5.73972951     -1.33214643      1.23119535
H          -6.78673767     -1.49021561      1.48542923
H          -5.38275068     -2.06409951      0.48944440
H          -5.09021993     -1.34799492      2.12177486
C          -0.81763103     -0.23475713      0.28137182
H          -0.26901253      0.46717301      0.96131694
C           0.09334586     -0.56201348     -0.93055157
H           0.07732088      0.26464148     -1.67724348
C          -0.17359721     -1.91000222     -1.62645651
H           0.69203136     -2.20016616     -2.25181300
H          -0.40503700     -2.71810771     -0.90622787
O          -1.10510131     -1.35756596      1.06567242
H          -1.77402356     -2.14040713      0.51138310
O          -1.24295132     -1.72253767     -2.55464325
H          -2.10752938     -1.93570286     -2.11948976
O           1.44683018     -0.73573468     -0.40382676
C           2.35550904      0.28922542     -0.52840656
C           2.07528704      1.67783450     -0.56194617
C           3.68896697     -0.14680057     -0.56126174
C           3.11771096      2.60531534     -0.64244336
C           4.72305258      0.78807201     -0.62103150
H           3.90684744     -1.22294469     -0.51346979
C           4.44164625      2.15639207     -0.67035169
H           2.90443526      3.66906003     -0.68338950
H           5.75609115      0.44117235     -0.62977986
H           5.25301747      2.87796448     -0.72954397
O           0.73141093      2.04036953     -0.56107286
C           0.41130845      3.29073532      0.09640625
H           0.71049145      4.12893567     -0.53764407
H          -0.68066419      3.23054006      0.18509561
H           0.88413840      3.34266787      1.08107995
C          -8.61458336      3.61822400     -1.03281988
H          -8.08133023      4.27407257     -1.74792023
H          -8.94253943      2.70158187     -1.56770610
C          -7.71846451      3.31364291      0.17442077
H          -6.69068605      3.02661827     -0.20913908
H          -7.58196584      4.22845953      0.79082866
C          -7.21954953      1.95074947      2.16998160
H          -7.58570625      1.21975387      2.91181084
H          -6.26756265      1.50999674      1.76247435
H          -6.96282055      2.87931450      2.69955667
C          -8.37639037      0.91131798      0.25555702
H          -8.60246280      0.04229331      0.89572971
H          -9.16525240      0.99455147     -0.50702510
H          -7.40750710      0.66304505     -0.27505587
C          -9.55561155      2.54793745      1.68334000
H          -9.98092410      1.70784652      2.25774427
H          -9.46322555      3.41271496      2.36111541
H         -10.29807578      2.83675187      0.90450735
N          -8.22659136      2.17948625      1.06276599
O          -9.84414938      4.21808635     -0.62112693
H          -9.74777466      5.18685828     -0.50388575
Cl         -2.96032071     -3.07468629     -0.03288082
C          -2.32242984     -2.31568132      3.52702791
H          -2.44456224     -2.13523837      4.60660672
H          -2.02915223     -1.37080005      3.01648772
C          -1.31185605     -3.42504895      3.20592985
H          -1.10106616     -4.08323571      4.06538716
H          -1.64817254     -4.03263583      2.33983796
O          -3.64846061     -2.65976236      3.09274340
H          -3.60884938     -3.12506787      2.21171199
O          -0.03411867     -2.84676416      2.90276486
H          -0.12996852     -2.16522701      2.14065178
C           3.48486892     -2.92697857      1.55360429
H           3.29480151     -1.87677270      1.83958394
H           3.71393485     -3.52100146      2.45600267
C           2.32799680     -3.55350984      0.75954914
H           1.61794350     -2.78684517      0.39157282
H           2.69644217     -4.14753381     -0.09609913
O           4.66285164     -2.82875453      0.73159806
H           4.95423694     -3.71990112      0.45837132
O           1.65589717     -4.49931193      1.58793933
H           1.00328817     -4.00958900      2.18946565
          85
 Energy =     -0.79845645 a.u.  #Cluster:   43
C          -4.64517626      1.76397015      0.54347376
C          -3.30687530      1.37207722      0.62949788
C          -2.96286246      0.02207923      0.75225583
C          -3.96094367     -0.96642122      0.80411476
C          -5.29386759     -0.58229553      0.70081945
C          -5.63726499      0.78650087      0.55757650
H          -4.89844218      2.82830954      0.47495078
H          -2.53169954      2.15260052      0.59017535
H          -3.66880289     -2.01115193      0.93471573
O          -6.95226318      1.18549838      0.40019258
H          -7.55678024      0.40439438      0.55731422
O          -6.39505226     -1.42319661      0.67169394
C          -6.24352561     -2.71001217      1.32340691
H          -7.27059411     -3.09489611      1.30880778
H          -5.57537957     -3.34544841      0.73329367
H          -5.87940796     -2.58234721      2.34710039
C          -1.50510143     -0.37060622      0.81937964
H          -0.93759494      0.29149066      1.52470383
C          -0.84655185     -0.30186506     -0.58420332
H          -0.99278304      0.69793965     -1.05373520
C          -1.29204603     -1.43277027     -1.52894112
H          -0.51515541     -1.64356345     -2.28907181
H          -1.53939436     -2.35680953     -0.97416163
O          -1.46071009     -1.71506166      1.31495276
H          -0.53633659     -1.90621665      1.65883092
O          -2.41513024     -0.99760619     -2.30011321
H          -3.20142788     -0.88601813     -1.72170513
O           0.57264576     -0.58964951     -0.40818825
C           1.47822108      0.43257603     -0.24446442
C           1.21659622      1.77371600      0.14436904
C           2.80160822      0.00973660     -0.43024959
C           2.27672076      2.66479088      0.32670173
C           3.85405995      0.90915635     -0.23314283
H           2.98555062     -1.02237783     -0.72904897
C           3.59281959      2.22729555      0.13990832
H           2.09006044      3.69792776      0.61443181
H           4.87960706      0.57438175     -0.37879648
H           4.41646484      2.93585174      0.28467997
O          -0.10841066      2.08687326      0.36789282
C          -0.47095143      3.49461939      0.37895081
H          -0.17094679      3.98048490     -0.55247902
H          -1.57698687      3.43050177      0.43552320
H          -0.05749479      3.98569614      1.26084049
C          -6.47572871      6.90681034     -1.32302205
H          -6.71384882      6.88299932     -0.24153005
H          -5.70445898      7.68240568     -1.49732250
C          -6.02107197      5.58390146     -1.87080785
H          -5.79358948      5.61397173     -2.94170434
H          -4.81471507      5.37807503     -1.33893218
C          -6.19408762      3.15078767     -2.09378582
H          -6.65277936      2.22524567     -1.69718853
H          -6.25365164      3.13665391     -3.19162494
H          -5.11166570      3.11607878     -1.82722721
C          -8.25351147      4.50186637     -2.06563075
H          -8.89755312      3.68132720     -1.71859401
H          -8.71160793      5.46892577     -1.75646901
H          -8.25066501      4.50177599     -3.16622546
C          -6.92908353      4.23484219     -0.00866807
H          -7.46695288      3.31164679      0.28032130
H          -5.90198360      4.16239832      0.42832368
H          -7.42517146      5.09800703      0.46158122
N          -6.84727048      4.38965659     -1.51195432
O          -7.72472319      7.35171848     -1.90082757
H          -7.60049237      7.60175120     -2.83433052
Cl         -3.51687057      4.94953373     -0.56227707
C           1.22820226     -0.50278822      3.10647456
H           0.74979490     -0.32421624      4.08255179
H           0.72981943      0.12421508      2.33616208
C           2.74525731     -0.26859280      3.14017848
H           3.22979245     -0.76887003      3.99829071
H           3.22239035     -0.60230254      2.20042386
O           0.98967030     -1.85005200      2.65979648
H           1.03795765     -2.47485068      3.41041153
O           2.99116428      1.11903069      3.37415866
H           2.91517017      1.62861521      2.53466001
C           7.69560182      5.23011668     -1.21130953
H           7.30689616      5.93579615     -1.96977427
H           7.95447335      5.79122946     -0.29680694
C           6.71067569      4.08646313     -0.92416444
H           6.48934595      3.49761174     -1.83165265
H           7.07552639      3.40960921     -0.12886270
O           8.87371244      4.70207613     -1.82846934
H           9.40576525      4.19925091     -1.17919282
O           5.50737777      4.62874473     -0.36891483
H           4.97545304      5.06832176     -1.06586816
          85
 Energy =     -0.79378024 a.u.  #Cluster:   44
C          -3.05075789      2.64904544     -0.01523582
C          -1.90452522      1.93258416      0.34759550
C          -2.00052209      0.60469059      0.77635659
C          -3.24954255     -0.03449651      0.87046097
C          -4.39067989      0.67756735      0.52342960
C          -4.29358718      2.02238968      0.06705795
H          -2.99044159      3.68257001     -0.35716082
H          -0.92747834      2.41986689      0.29629852
H          -3.29450074     -1.06305747      1.22908069
O          -5.39692732      2.74482872     -0.30879761
H          -6.22573761      2.19862943     -0.20920796
O          -5.69885160      0.22593005      0.56583747
C          -5.90547506     -1.15964009      0.92731194
H          -6.99821898     -1.24756250      0.86880474
H          -5.41512047     -1.81747300      0.20331916
H          -5.54892734     -1.33912915      1.94662299
C          -0.73915070     -0.13547733      1.13517994
H          -0.13540262      0.43388283      1.90072153
C           0.11311290     -0.43750672     -0.12160790
H           0.41349331      0.49877086     -0.64419751
C          -0.54163337     -1.43060872     -1.09820529
H           0.22834485     -1.99187472     -1.66218127
H          -1.22240266     -2.13311730     -0.58369604
O          -1.12455516     -1.39624517      1.73897815
H          -0.30532253     -1.92683602      1.86180466
O          -1.25065386     -0.71440376     -2.11011177
H          -2.02208455     -0.24435446     -1.71642194
O           1.28646717     -1.16358404      0.36739233
C           2.49676830     -0.48462016      0.40013525
C           2.65857359      0.86662952      0.81408499
C           3.60857068     -1.28018035      0.11945887
C           3.94856209      1.36648095      1.02145572
C           4.89364123     -0.75950965      0.31868381
H           3.46215134     -2.29352149     -0.24630227
C           5.05691408      0.54833148      0.77876413
H           4.08925096      2.38404989      1.39032896
H           5.76263284     -1.37703390      0.10526653
H           6.05711208      0.94729493      0.94817957
O           1.49656558      1.57190033      0.96543640
C           1.57502091      2.92286321      1.50419272
H           1.74265351      3.60781613      0.67197669
H           0.58470006      3.03818132      1.97220028
H           2.34716707      3.01398088      2.28808175
C           1.89398246     -4.30961257      3.39147770
H           1.10166822     -3.85112472      2.76186012
H           2.80269746     -4.46102865      2.78068913
C           2.18936301     -3.51565862      4.67667455
H           1.59893468     -3.96781460      5.52371586
H           3.25797765     -3.62127838      4.96300453
C           2.26647846     -1.34866003      5.85673341
H           1.98965467     -0.26014821      5.81727986
H           1.76236846     -1.77583560      6.73674019
H           3.35525355     -1.39367179      6.00340634
C           0.34987562     -1.86160751      4.41369689
H           0.06824472     -0.77374524      4.39394588
H          -0.02622027     -2.28412507      3.46574200
H          -0.20282746     -2.32711651      5.25205602
C           2.57944681     -1.42324834      3.41584373
H           2.37025489     -0.31440341      3.34777698
H           3.67017212     -1.52822469      3.50457763
H           2.25510016     -1.83247130      2.44411001
N           1.83990030     -2.03428942      4.57570274
O           1.32246097     -5.57294095      3.74109949
H           2.00120283     -6.16841515      4.12522061
Cl          1.12479927      1.40171342      4.16187312
C          -0.99460531     -4.90348965      5.86297397
H          -0.62489478     -4.80927788      4.81957759
H          -2.04363529     -4.56141272      5.92115944
C          -0.81926306     -6.33613699      6.38633575
H           0.23703494     -6.65583586      6.35343237
H          -1.21308584     -6.47168516      7.41193423
O          -0.14521616     -4.00354077      6.59674136
H          -0.46165597     -3.91301777      7.52036327
O          -1.63107667     -7.21564759      5.60389850
H          -1.28900141     -7.26389397      4.68450760
C           1.98893052      5.51703621      3.99731289
H           2.72905718      5.67418057      3.19288070
H           0.99779437      5.29573092      3.56084175
C           2.46104983      4.42172189      4.96841387
H           3.19556589      4.81124468      5.69582735
H           1.61799019      3.95524969      5.51155477
O           1.76144305      6.75233105      4.69306779
H           2.58256410      7.05728571      5.12356224
O           3.15598203      3.44221166      4.20037085
H           2.54361389      2.59412803      4.10747208
          85
 Energy =     -0.79245787 a.u.  #Cluster:   45
C          -3.73979501      2.27691359     -2.17204828
C          -2.47474040      2.17263725     -1.59207817
C          -2.29224799      1.41859597     -0.42593352
C          -3.38751775      0.80810277      0.19982267
C          -4.65457560      0.90889496     -0.37115227
C          -4.83329329      1.62511834     -1.58304861
H          -3.90245735      2.85102527     -3.08204937
H          -1.63159091      2.67884898     -2.05505941
H          -3.21241710      0.28086667      1.14740125
O          -6.01747341      1.74688272     -2.24603547
H          -6.74323744      1.06723895     -1.91218588
O          -5.80399600      0.38023410      0.21346051
C          -5.59392524     -0.77154727      1.07655868
H          -6.61560943     -1.04719197      1.35944623
H          -5.09642017     -1.57312314      0.52333305
H          -5.01371504     -0.47145128      1.95906079
C          -0.90652402      1.22938339      0.15736189
H          -0.39236424      2.22174822      0.28769384
C          -0.06597934      0.33418072     -0.80686336
H           0.21996973      0.88437859     -1.72623400
C          -0.74685173     -1.01248963     -1.11240597
H          -0.00868660     -1.81055357     -1.31267260
H          -1.41754704     -1.32491989     -0.28776410
O          -1.01064724      0.58519637      1.39669070
H          -0.08588486      0.85393868      1.95935876
O          -1.50234243     -0.92220700     -2.34203830
H          -2.31977987     -0.38052289     -2.19520586
O           1.11469632     -0.13318232     -0.09728060
C           2.31800184      0.50102106     -0.16169667
C           2.70213057      1.63994032     -0.88995701
C           3.30540553     -0.21861337      0.56580346
C           4.03678132      2.08607061     -0.86069008
C           4.61262355      0.23133999      0.58509316
H           2.98830776     -1.08567596      1.15020998
C           4.99031343      1.37782661     -0.14473336
H           4.30168326      2.99821539     -1.38714402
H           5.35760430     -0.29491166      1.18561438
H           6.02143286      1.71859329     -0.11379985
O           1.77995162      2.38413098     -1.64821771
C           1.30393868      3.56306567     -0.92440877
H           2.14786707      4.20023032     -0.65166414
H           0.62614941      4.04062004     -1.63006500
H           0.78026653      3.22570829     -0.00332552
C           1.22324622      0.27119008     -4.06333190
H           1.45839730     -0.81021935     -4.11006748
H           1.58807448      0.68867871     -3.09684630
C           1.79414463      0.99190546     -5.29322629
H           2.81886510      0.62593670     -5.51879808
H           1.14402528      0.72221349     -6.16428710
C           1.98162210      3.11694371     -6.53472404
H           2.05024757      4.21912773     -6.49343849
H           2.89623147      2.75127267     -7.03270478
H           1.12198966      2.87067929     -7.18559826
C           2.98039994      2.94316779     -4.29166351
H           3.10092124      4.03758338     -4.26626885
H           2.81437577      2.63041875     -3.21721969
H           3.93140883      2.49836884     -4.61920592
C           0.52770874      3.02880342     -4.54640893
H           0.44258718      4.12159005     -4.61209310
H          -0.35721839      2.55501095     -5.02261595
H           0.45372922      2.73249442     -3.46982945
N           1.81697767      2.51850824     -5.15234947
O          -0.18501782      0.47263565     -4.15789727
H          -0.68691214     -0.15401117     -3.50013782
Cl          1.37477334      1.75609252      2.19263687
C           3.13032291      0.73131119      4.80903577
H           3.28993052      1.72114194      4.33848285
H           3.96483671      0.49702730      5.48959742
C           1.76027553      0.67113621      5.50288899
H           1.10994931     -0.08073430      5.01829261
H           1.83685015      0.45665722      6.58234061
O           3.22119422     -0.29324678      3.81084370
H           2.63689796     -0.05548664      3.04221062
O           1.11893532      1.94941099      5.47138087
H           0.93536493      2.21114536      4.53013959
C          -8.94422690      1.46557442     -0.81080531
H          -8.57105433      1.91250243      0.12763696
H          -9.91413598      0.96521485     -0.64380133
C          -9.00901001      2.50240210     -1.93779548
H          -8.83890509      2.02913863     -2.92389438
H          -9.97773312      3.03796593     -1.93813923
O          -8.03666385      0.41900420     -1.25565848
H          -7.50257217      0.07989656     -0.48834248
O          -8.05597028      3.54249634     -1.72460202
H          -7.13250963      3.18936214     -1.88043048
          85
 Energy =     -0.78806881 a.u.  #Cluster:   46
C          -4.07739658      2.64274857     -0.77211075
C          -2.78496016      2.12814769     -0.62453854
C          -2.56987730      0.95179757      0.10343580
C          -3.64253262      0.26818934      0.70086453
C          -4.92771786      0.78011791      0.56043609
C          -5.14427447      1.97070226     -0.18087147
H          -4.25271374      3.56240677     -1.34382314
H          -1.94532374      2.65186159     -1.09821366
H          -3.43698790     -0.63750218      1.27848346
O          -6.41236562      2.50766294     -0.32261985
H          -7.09337171      1.85214119      0.00291391
O          -6.09439604      0.25808233      1.08544214
C          -6.01380906     -1.06218071      1.68094901
H          -7.06089879     -1.25081371      1.95059491
H          -5.65454967     -1.78939461      0.94666850
H          -5.37489645     -1.03182596      2.57015157
C          -1.16918997      0.41134262      0.24308416
H          -0.49199977      1.17160831      0.71647349
C          -0.57791394     -0.04146113     -1.11414777
H          -0.35875604      0.83986513     -1.77160231
C          -1.41144431     -1.09008539     -1.86805524
H          -0.78580070     -1.64615784     -2.59486730
H          -1.91913768     -1.79578544     -1.18895918
O          -1.22409871     -0.72280753      1.12961526
H          -0.36389147     -1.21139649      1.05607291
O          -2.37392819     -0.40850872     -2.69175182
H          -3.15794633     -0.14779306     -2.15250092
O           0.63384851     -0.77429106     -0.77514535
C           1.85571691     -0.12152123     -0.83593278
C           2.07976204      1.27515949     -0.81046951
C           2.93937574     -1.01037776     -0.86817494
C           3.38891182      1.76897761     -0.82724775
C           4.24046717     -0.50481884     -0.87801052
H           2.74772205     -2.08163959     -0.89760471
C           4.46284503      0.87525487     -0.86026138
H           3.56974237      2.84164166     -0.79991931
H           5.09125000     -1.19825204     -0.89564721
H           5.48337245      1.25806682     -0.86814116
O           0.95445236      2.07460486     -0.71519853
C           1.01228032      3.38151203     -1.34871067
H           1.65918506      3.38378407     -2.22784283
H          -0.03682990      3.54353818     -1.64601229
H           1.33859407      4.10728537     -0.59836424
C          -4.15666610      6.69541683     -0.02260965
H          -4.64746817      7.38911542      0.68972702
H          -3.55675876      5.94657881      0.52650808
C          -5.21364309      5.99456478     -0.93244778
H          -5.19384591      6.53311010     -1.92005685
H          -4.89615400      4.94779026     -1.14589126
C          -7.52341148      5.24532114     -1.34940182
H          -8.57533243      5.24897121     -1.02469495
H          -7.48148623      5.69743368     -2.35866522
H          -7.20174898      4.18671384     -1.44298758
C          -7.15538751      7.41024277     -0.23905870
H          -8.11599947      7.45105667      0.28702209
H          -6.42167880      8.06537892      0.28513200
H          -7.26823344      7.90765004     -1.23196783
C          -6.67188634      5.30903789      0.96068754
H          -7.69178262      5.27119669      1.37328036
H          -6.30731109      4.26206349      0.87789098
H          -6.02905352      5.82392599      1.69641712
N          -6.63247625      6.00164694     -0.38393333
O          -3.26985333      7.38162684     -0.84019489
H          -3.83276269      8.25220449     -1.33420945
Cl         -5.14385779      9.12497402     -1.85316649
C          -0.17422772      1.78532197     -4.41887357
H           0.63841424      1.16509498     -3.99690070
H           0.20661873      2.80214278     -4.62389034
C          -0.78916105      1.12411159     -5.66141203
H          -1.22570221      0.13263059     -5.42695694
H          -1.56083463      1.75676776     -6.13144912
O          -1.18003205      1.99672829     -3.42481041
H          -1.67420693      1.13896776     -3.24775705
O           0.24480677      0.81265874     -6.60066317
H           0.58288679      1.62878348     -7.02083206
C           4.71303454     -4.56084294      0.78570048
H           3.89224682     -4.91183389      1.43267902
H           4.37626153     -4.55344634     -0.27169477
C           5.25657942     -3.19369994      1.21358997
H           4.46597187     -2.41877613      1.25956799
H           5.78512731     -3.23955501      2.18283858
O           5.77727357     -5.52208653      0.76698220
H           6.06152547     -5.74231657      1.67663365
O           6.16653610     -2.68672176      0.22860096
H           6.78711697     -3.40646228     -0.03957434
          85
 Energy =     -0.78429751 a.u.  #Cluster:   47
C          -3.72640785      2.56569254     -0.78140333
C          -2.38246861      2.29647260     -0.48998072
C          -2.04068703      1.29305936      0.42107342
C          -3.03571377      0.53595204      1.06550837
C          -4.36910393      0.79498115      0.77713211
C          -4.71812654      1.81480017     -0.15313208
H          -4.00749756      3.34386606     -1.48923529
H          -1.60496817      2.87576700     -0.98749464
H          -2.73595791     -0.22440574      1.79138529
O          -6.02668682      2.09127188     -0.46516981
H          -6.63638320      1.47937442      0.03658562
O          -5.46988190      0.15890959      1.31607381
C          -5.21833526     -1.08087114      2.02880124
H          -6.23388450     -1.45961858      2.20332865
H          -4.66140824     -1.78487801      1.39735311
H          -4.70015274     -0.86880688      2.96697250
C          -0.58670734      1.00792928      0.69914993
H          -0.01674302      1.94898357      0.90985961
C           0.08166997      0.23822704     -0.46844852
H           0.17688681      0.87335846     -1.37574511
C          -0.58197678     -1.10970195     -0.80437161
H           0.15095634     -1.80624640     -1.25699321
H          -1.04791505     -1.57535572      0.08243006
O          -0.51986666      0.20171288      1.89204333
H           0.39004386     -0.18440549      1.95140276
O          -1.55134515     -0.91730413     -1.83604789
H          -2.33340199     -0.43556692     -1.48267689
O           1.38806650     -0.15286621      0.05480289
C           2.50690154      0.52630764     -0.39945430
C           2.57352795      1.90523195     -0.71855326
C           3.66178241     -0.26314452     -0.45265041
C           3.79140872      2.46710293     -1.10884537
C           4.87771918      0.31657244     -0.82670540
H           3.59130887     -1.32060953     -0.20184156
C           4.94011457      1.67130213     -1.15978230
H           3.85935413      3.52611713     -1.36144688
H           5.77969638     -0.29333145     -0.86318448
H           5.89859808      2.12249093     -1.45067675
O           1.38671330      2.60634215     -0.58577248
C           1.33132057      3.93855231     -1.15358051
H           1.43056146      3.88985303     -2.24326266
H           0.32779088      4.26778133     -0.85922783
H           2.10431042      4.58102273     -0.71608299
C           3.69965425      6.36686976      2.54054607
H           3.48553146      6.05150264      1.49040217
H           2.81000531      6.17754358      3.16608937
C           4.94303002      5.67385320      3.12344805
H           5.43784650      6.35639023      3.84964116
H           4.63904991      4.76452550      3.69024128
C           7.19996517      4.73917584      2.71500302
H           7.91640530      4.37503564      1.93112637
H           7.71636997      5.51366892      3.29777466
H           6.98502618      3.87530527      3.36175112
C           6.31747358      6.46718902      1.20356835
H           7.11184037      6.19998348      0.46756376
H           5.44606447      6.81779116      0.60594904
H           6.66208159      7.30987403      1.81577302
C           5.36913228      4.18780036      1.18731752
H           6.18577884      3.88239524      0.35729364
H           5.12307095      3.27409053      1.72826933
H           4.50591199      4.52378302      0.59344333
N           5.94806614      5.26616839      2.04389022
O           3.93359657      7.76976092      2.41244946
H           3.81832892      8.22867666      3.26881528
Cl          7.64209068      3.99785028     -0.68556011
C          -6.80503225     -3.74343199      0.12076533
H          -6.28328636     -4.09943221     -0.78651913
H          -7.12956070     -2.69595945     -0.02674626
C          -7.95897664     -4.66582063      0.52711613
H          -8.39820059     -4.36688818      1.50098705
H          -8.75190088     -4.71960453     -0.23615690
O          -5.84610922     -3.66094363      1.18450295
H          -5.70369665     -4.56696419      1.55798947
O          -7.44126052     -5.97437707      0.80709687
H          -7.18583077     -6.42952708     -0.02123563
C           4.82986466      5.97307326     -1.95873711
H           5.66478524      5.30040577     -1.64989623
H           5.22638875      6.98599925     -2.13952503
C           4.03521446      5.42082032     -3.14543074
H           4.53655429      5.57445215     -4.11294375
H           3.79744663      4.34237046     -3.01569959
O           3.96295767      6.03663264     -0.80684425
H           3.07504301      6.36994410     -1.10900226
O           2.73603964      6.04572852     -3.12691947
H           2.76675015      6.91362683     -3.57782472
          85
 Energy =     -0.77581615 a.u.  #Cluster:   48
C          -3.52344657      2.47356447     -0.59010262
C          -2.33808431      1.95895337     -0.04738215
C          -2.27772598      0.63475934      0.39335175
C          -3.40194029     -0.20623092      0.30850283
C          -4.57972776      0.29787441     -0.22660880
C          -4.64070296      1.64595087     -0.68299416
H          -3.58772967      3.50385486     -0.93517990
H          -1.46652399      2.60741611      0.03117948
H          -3.32870480     -1.22974552      0.68729088
O          -5.78388616      2.17798897     -1.22629665
H          -6.51166771      1.49387902     -1.23879296
O          -5.77697843     -0.37333256     -0.37055513
C          -5.75872044     -1.80673845     -0.13643773
H          -6.79865582     -2.08468315     -0.34072765
H          -5.08199197     -2.30282880     -0.84177099
H          -5.48819686     -2.01802646      0.90190476
C          -0.98409388      0.09266828      0.95248429
H          -0.54685284      0.77099548      1.72440851
C           0.04238179     -0.14457813     -0.18402376
H           0.31595650      0.81381180     -0.68181065
C          -0.39654860     -1.18867978     -1.21788637
H           0.42473586     -1.90266844     -1.45348704
H          -1.28507688     -1.76297831     -0.89979505
O          -1.28967525     -1.15659278      1.59541143
H          -0.44134148     -1.61928127      1.81516556
O          -0.66456541     -0.51744969     -2.46346780
H          -1.49276905      0.00459320     -2.38775448
O           1.17655290     -0.71165087      0.53456949
C           2.43366300     -0.26975259      0.16162114
C           2.80079830      1.10325628      0.12422732
C           3.38327596     -1.26149382     -0.08081115
C           4.11891920      1.46323736     -0.15543322
C           4.70576040     -0.88986330     -0.35465971
H           3.07761850     -2.31805274     -0.05870560
C           5.06671077      0.45628338     -0.39201254
H           4.42305445      2.50408248     -0.18126332
H           5.44735031     -1.66669516     -0.53840850
H           6.09724259      0.73901590     -0.60227577
O           1.75522445      1.97921193      0.35051383
C           2.07645544      3.38207543      0.50302452
H           2.46936736      3.78549995     -0.43348507
H           1.09400798      3.81185501      0.73999327
H           2.77614272      3.52459847      1.33207832
C           3.43513943      0.05405486     -5.66357034
H           3.58869813      0.80466263     -4.86813309
H           4.26763581     -0.68052929     -5.64334222
C           2.05124559     -0.61547441     -5.57840545
H           1.28785324      0.12489185     -5.24622167
H           1.74913932     -0.93706566     -6.60220424
C           0.59491654     -2.31178391     -4.54898602
H           0.54054614     -3.21827987     -3.89758825
H          -0.07230090     -1.56857295     -4.05410341
H           0.18845331     -2.56925012     -5.53296893
C           2.48348564     -1.40947085     -3.27004525
H           2.38113959     -2.41776668     -2.52566310
H           3.53403547     -1.14316279     -3.20142957
H           1.85765153     -0.65077205     -2.79560578
C           2.89656503     -2.92076678     -5.15680916
H           2.89913079     -3.77586963     -4.43297491
H           2.54126242     -3.29904574     -6.12507199
H           3.94485526     -2.59974099     -5.26307842
N           2.02028506     -1.80637355     -4.62471439
O           3.56927874      0.65072656     -6.95326971
H           3.06952191      1.49179629     -7.00621293
Cl          2.08477359     -3.95946034     -1.94759103
C          -6.64632482     -5.45362368     -0.81932957
H          -6.42788630     -6.23752127     -1.56901506
H          -7.49456108     -4.83610010     -1.16130517
C          -6.88498571     -6.05876122      0.57246196
H          -6.13170796     -6.83359021      0.81733716
H          -6.89695285     -5.28804690      1.36179014
O          -5.55359998     -4.52825023     -0.74341298
H          -4.70302688     -5.02215891     -0.72725159
O          -8.11616346     -6.79316850      0.56928950
H          -8.88176862     -6.18580269      0.56007792
C          -7.56209599     -9.35576078     -1.10543056
H          -7.61362181     -8.70860287     -0.19679099
H          -8.52421656     -9.28984030     -1.63891814
C          -6.37421235     -8.98318751     -1.99794970
H          -5.92509704     -9.87240611     -2.47687905
H          -6.64433784     -8.24207576     -2.77274360
O          -7.39253172    -10.66837854     -0.55980238
H          -7.51952105    -11.34866826     -1.24914517
O          -5.35778305     -8.30357307     -1.24532569
H          -5.05184426     -8.88117078     -0.50948044
          85
 Energy =     -0.77245832 a.u.  #Cluster:   49
C          -3.18369961      3.00216159     -0.12698367
C          -2.14126536      2.33224791      0.51880095
C          -2.22044588      0.96404152      0.79508579
C          -3.37308165      0.23412983      0.44371741
C          -4.40449038      0.88566605     -0.21577043
C          -4.31843546      2.27725924     -0.49818746
H          -3.13248402      4.06784686     -0.34072319
H          -1.24607121      2.89255978      0.81171483
H          -3.44215301     -0.82219413      0.70807735
O          -5.33393334      2.93031527     -1.14654648
H          -6.09183507      2.28884097     -1.29955166
O          -5.54607297      0.28000726     -0.72421620
C          -6.25580585     -0.57680421      0.20958580
H          -7.21549309     -0.72891898     -0.29295118
H          -5.71041474     -1.51607575      0.32638677
H          -6.38140120     -0.06173312      1.17234348
C          -1.06160319      0.25420159      1.47000013
H          -0.49148199      0.93819098      2.14510202
C          -0.10859201     -0.35167380      0.40925924
H           0.01769806      0.35114900     -0.44481798
C          -0.52896345     -1.75129723     -0.07797544
H           0.35357758     -2.38149107     -0.29113548
H          -1.18774710     -2.26735471      0.64685647
O          -1.57636566     -0.83998222      2.24693294
H          -1.93069903     -0.49138998      3.10542244
O          -1.18116563     -1.64454678     -1.34972654
H          -2.03852973     -1.17554847     -1.25524074
O           1.17653838     -0.57810129      1.07136056
C           2.27172821      0.12812119      0.61058434
C           2.33883245      1.54705376      0.52299722
C           3.41263531     -0.63185422      0.34646943
C           3.54008453      2.17522493      0.20460554
C           4.62009447      0.00596059      0.03472355
H           3.36166989     -1.72242950      0.40196983
C           4.68722994      1.39229510     -0.03269168
H           3.61519784      3.25507017      0.14143986
H           5.50888529     -0.59725136     -0.15094324
H           5.62797440      1.88573827     -0.26833887
O           1.13968356      2.19137759      0.75436239
C           1.17379132      3.63737755      0.83520551
H           1.50099054      4.06344906     -0.11679765
H           0.11193040      3.86607567      1.03115994
H           1.80614260      3.95539129      1.66950613
C          -6.50984077      1.20528070      3.77628256
H          -7.48839800      0.80767842      3.44487046
H          -6.65434865      2.18273402      4.27842468
C          -5.71198743      0.22582629      4.60869654
H          -5.68159682     -0.77257780      4.15651556
H          -4.44889646      0.60545410      4.49048716
C          -5.04449273     -0.82339023      6.70322011
H          -5.17521594     -0.88170877      7.79169764
H          -5.18317319     -1.83145825      6.27879144
H          -3.98460161     -0.53585517      6.49583690
C          -7.41732201     -0.26418121      6.33817598
H          -7.65459854     -0.23401723      7.42130629
H          -8.14082127      0.39154144      5.82661456
H          -7.59372029     -1.28916905      5.97425112
C          -5.76932386      1.53086432      6.71052937
H          -6.07441912      1.53611986      7.77235081
H          -4.69671941      1.82347713      6.63997808
H          -6.33368322      2.32079373      6.18541419
N          -5.99329776      0.17730916      6.06942059
O          -5.83056273      1.43279842      2.53950289
H          -4.86425041      1.61882522      2.69112383
Cl         -2.96412582      1.11426014      4.61439737
C          -9.23973432      1.72320835      8.77695950
H         -10.00128101      0.92506541      8.89229527
H          -9.18572263      2.04628121      7.72148488
C          -9.54285431      2.88613419      9.72966089
H          -9.09656861      2.72588131     10.73194753
H          -9.21664929      3.86135825      9.33266816
O          -7.93119693      1.18285446      9.02373656
H          -7.86635275      0.85000593      9.94439097
O         -10.97622831      2.84446318      9.87436670
H         -11.32768016      3.74009764     10.05028626
C           4.00371531     -4.46501802     -0.48635957
H           4.54102562     -4.05246778     -1.36105231
H           2.91571749     -4.37867460     -0.65251298
C           4.43222199     -5.90773371     -0.17845373
H           5.47391707     -5.94948708      0.18622681
H           3.76796062     -6.39439085      0.55936182
O           4.41986912     -3.61583441      0.58881713
H           3.84018872     -3.73725144      1.37071744
O           4.27589459     -6.72143303     -1.34451076
H           4.94121250     -6.48526756     -2.02071102
          85
 Energy =     -0.76924570 a.u.  #Cluster:   50
C          -3.19693365      2.41919866     -1.01155446
C          -2.02874552      1.88560517     -0.46349557
C          -2.08262163      0.74336995      0.34683690
C          -3.30782560      0.11167109      0.61738146
C          -4.47204063      0.62933961      0.06630633
C          -4.42304425      1.79698220     -0.75290869
H          -3.16159230      3.31294032     -1.63781170
H          -1.06866391      2.36482697     -0.67454326
H          -3.32945729     -0.76442096      1.27089563
O          -5.55267155      2.33628167     -1.31294406
H          -6.36581191      1.84497980     -1.00056482
O          -5.73721052      0.09503850      0.21039704
C          -5.85412011     -1.03289525      1.11971750
H          -6.92570859     -1.26319257      1.06257508
H          -5.24800658     -1.87323659      0.76352372
H          -5.56151630     -0.72996714      2.13078898
C          -0.80959101      0.16714007      0.91138539
H          -0.21163211      0.93737538      1.46934582
C           0.06521124     -0.45004436     -0.20441309
H           0.28766086      0.31262324     -0.98363865
C          -0.46234147     -1.74945259     -0.82965168
H           0.33356913     -2.26223687     -1.40221669
H          -0.90065074     -2.42396725     -0.07505508
O          -1.17454821     -0.86090995      1.84977174
H          -0.34578076     -1.26511355      2.20334674
O          -1.45304154     -1.41946567     -1.81609793
H          -2.29545185     -1.17057150     -1.36622741
O           1.27793469     -0.85657753      0.50728804
C           2.44422582     -0.27828945      0.01939104
C           2.63969313      1.12652932      0.02888281
C           3.45387454     -1.14454781     -0.39577895
C           3.86758451      1.65340439     -0.37356286
C           4.68382341     -0.60280069     -0.79689507
H           3.28832568     -2.22424897     -0.37792798
C           4.87555531      0.77739394     -0.78976245
H           4.04826735      2.72686818     -0.37160791
H           5.47902705     -1.27697687     -1.11587495
H           5.82989395      1.19189321     -1.13240346
O           1.52926840      1.84201459      0.43875731
C           1.59594225      3.28812219      0.37441481
H           1.79900574      3.61207012     -0.65312765
H           0.58072313      3.56916723      0.68166567
H           2.33381969      3.66682694      1.08834340
C          -2.61810530     -0.30578936     -4.32739335
H          -1.82062177      0.03341186     -3.63426069
H          -3.51387322      0.34837425     -4.21346842
C          -2.11112768     -0.34688504     -5.78350842
H          -0.98837957     -0.19352726     -5.80571486
H          -2.29156096     -1.35069188     -6.24128101
C          -2.33889609      0.57324147     -8.06947988
H          -2.79915379      1.34531926     -8.71599015
H          -1.23003116      0.70673451     -8.15038645
H          -2.59326140     -0.42593431     -8.45845529
C          -2.28561268      2.07194865     -6.15194458
H          -2.59286386      2.92206604     -6.75394324
H          -2.44192946      2.28397226     -5.09613789
H          -1.00256569      2.06267088     -6.24735231
C          -4.28401768      0.60146759     -6.57150046
H          -4.79625382      1.41855100     -7.10405303
H          -4.60590911     -0.36300064     -7.01068604
H          -4.66193633      0.61833002     -5.52596477
N          -2.77120388      0.75051372     -6.62654336
O          -3.07423470     -1.61565884     -3.95810876
H          -2.34554189     -2.07811000     -3.44245965
Cl          0.61311774      1.80690470     -6.45170848
C           4.46110763      3.91278210     -7.34431777
H           3.94467558      3.33338440     -8.13579775
H           5.49657260      3.53313647     -7.21637786
C           4.45719418      5.41975091     -7.65877962
H           3.46461026      5.87447655     -7.46328780
H           5.22412746      5.96586180     -7.08090226
O           3.84431834      3.72473993     -6.06413354
H           2.90283902      3.40901489     -6.16529408
O           4.65650669      5.61858836     -9.06628081
H           5.61174119      5.52803410     -9.29682222
C           2.80410876     -4.63595748      2.63318418
H           2.20774554     -4.44489314      1.71713127
H           3.64263050     -5.30989500      2.38523214
C           3.27352012     -3.32683765      3.29043190
H           2.47021343     -2.89996729      3.92264028
H           4.19145065     -3.46195225      3.89766736
O           1.88154533     -5.30471801      3.50056948
H           2.34717144     -5.65238806      4.28912701
O           3.68787323     -2.40547070      2.28286850
H           2.90956096     -1.97907992      1.84727056
