          93
 Energy =     -1.00783348 a.u.  #Cluster:    1
C          -3.89253161      2.51659501      2.40850001
C          -2.68850192      1.82244016      2.30311586
C          -2.60191049      0.64269884      1.54563335
C          -3.74881185      0.11064026      0.94388792
C          -4.94584026      0.81622161      1.01816175
C          -5.02182653      2.03523665      1.73159880
H          -3.97316998      3.42678099      3.00001047
H          -1.79873980      2.20715391      2.80622566
H          -3.68686369     -0.84368169      0.40359047
O          -6.14014663      2.83074600      1.76909050
H          -6.97213324      2.35371862      1.40040286
O          -6.12926979      0.46157034      0.36883604
C          -6.19839010     -0.86453312     -0.23883156
H          -7.22716249     -0.87482517     -0.63820395
H          -5.45854999     -0.94361443     -1.04963199
H          -6.03724005     -1.63533077      0.51740997
C          -1.24408161     -0.00388378      1.33689135
H          -0.68735793     -0.11905487      2.30589786
C          -0.41798996      0.89323789      0.37172207
H          -0.85331782      1.91654958      0.30127111
C          -0.17017132      0.33689386     -1.04135134
H           0.76612700      0.74671668     -1.46135486
H          -0.11242471     -0.76896637     -1.05038630
O          -1.35000731     -1.34668460      0.90241803
H          -1.80904104     -1.42330480      0.02027990
O          -1.21770916      0.78598408     -1.87516214
H          -1.97912144     -0.07108913     -2.02523039
O           0.87185335      0.97433955      1.07046149
C           1.72158374      1.98296711      0.67167302
C           1.37699541      3.35374348      0.62893453
C           3.03699294      1.59082001      0.37464222
C           2.32375932      4.31544320      0.27757497
C           3.98808901      2.56014503      0.05171275
H           3.29133476      0.53075875      0.41266140
C           3.63457754      3.91004788     -0.01088196
H           2.04991529      5.36613246      0.22762827
H           5.01416455      2.25688315     -0.15988980
H           4.37828420      4.65626258     -0.28615621
O           0.04207608      3.68481801      0.88313329
C          -0.14847257      4.69061754      1.91574637
H           0.24970275      5.65218880      1.58446120
H          -1.24134401      4.72491919      2.01054623
H           0.32187944      4.35854088      2.84664100
C          -2.92704954      4.03654022     -0.61542755
H          -3.68646689      4.82994434     -0.74838075
H          -2.86874331      3.77911699      0.46084791
C          -3.23518674      2.77533788     -1.42404595
H          -2.43944783      1.97349189     -1.22785258
H          -4.19923852      2.33999001     -1.06610282
C          -3.95139757      1.77639415     -3.56694218
H          -4.04223113      1.87799582     -4.65616467
H          -3.34322684      0.85886531     -3.37459463
H          -4.95742091      1.58532469     -3.14091348
C          -1.91322002      3.15836699     -3.48834936
H          -1.91367054      3.26774049     -4.57912014
H          -1.41013594      4.03513418     -3.02968438
H          -1.28354767      2.26594467     -3.22019986
C          -4.14941920      4.20249820     -3.25659439
H          -4.29298220      4.31887518     -4.33977611
H          -5.14670011      4.11337451     -2.77599400
H          -3.67166228      5.12712721     -2.88125572
N          -3.30720339      2.98866879     -2.93098356
O          -1.70968734      4.65463894     -1.03891273
H          -0.93129374      4.22064910     -0.58038478
Cl         -3.12096396     -1.19765822     -2.06768591
C          -7.74775322      2.68065268     -1.80941044
H          -8.18863140      2.77925830     -0.80102142
H          -7.80214171      3.65685255     -2.32431631
C          -8.39994680      1.56308807     -2.64385538
H          -7.65561067      0.76249484     -2.86285679
C          -9.66704510      0.96327018     -2.00397786
H         -10.37168453      1.73410701     -1.65683583
H         -10.18568288      0.29494708     -2.72310940
O          -8.88299523      2.12609171     -3.87665007
H          -8.14033820      2.26842492     -4.49525009
O          -6.34234985      2.41813605     -1.68922335
H          -6.20302310      1.69091770     -1.01214196
O          -9.29086673      0.09916098     -0.93505473
H          -9.01391365      0.63352388     -0.13706161
C          -7.95878884      2.43871304      4.41365108
H          -7.40469554      1.48546877      4.42935311
H          -8.43556066      2.59450642      5.40158821
C          -8.99330844      2.52363859      3.27103211
H          -8.72756362      3.35941221      2.57831509
C          -9.19402517      1.21939383      2.48437288
H          -9.04475934      0.31030987      3.08611012
H         -10.20869412      1.19735829      2.02964579
O         -10.30165423      2.76304802      3.81735714
H         -10.34131121      3.65837320      4.21750691
O          -7.03859218      3.52442215      4.30309079
H          -6.50733840      3.42083978      3.46345079
O          -8.28182646      1.24247089      1.36309616
H          -7.57684389      0.52810563      1.43662269
          93
 Energy =     -1.00578058 a.u.  #Cluster:    2
C          -1.91890471      1.79068223     -2.33677526
C          -0.91803315      1.42721336     -1.43960916
C          -1.12070744      0.40266216     -0.50788789
C          -2.39211546     -0.18562380     -0.36910197
C          -3.39999641      0.19349229     -1.23821946
C          -3.16341276      1.12927412     -2.30384039
H          -1.74787670      2.54957051     -3.09599615
H           0.04505935      1.94092407     -1.48806338
H          -2.56382546     -0.91820219      0.41968849
O          -4.03937593      1.30088959     -3.26449626
H          -5.02237696      0.38151166     -3.28288265
O          -4.71794321     -0.23224927     -1.17687013
C          -4.92181725     -1.64247675     -0.93446562
H          -6.01342703     -1.72647872     -1.04233130
H          -4.41841773     -2.23788020     -1.70743788
H          -4.59094880     -1.90894907      0.07125090
C           0.04983189     -0.10249051      0.29169346
H           0.62058615      0.72203333      0.77950183
C           0.97929936     -0.91905202     -0.65256407
H           1.32776859     -0.29613390     -1.51957941
C           0.33917368     -2.23047209     -1.12684738
H           1.00875125     -3.09643052     -0.96188244
H          -0.64127326     -2.40734599     -0.63453997
O          -0.45326633     -0.97371016      1.31899892
H           0.30339659     -1.33963712      1.82718980
O           0.08029160     -2.20762854     -2.54320819
H           0.09231738     -1.24112895     -2.90535838
O           2.14843910     -1.39995162      0.07534010
C           3.15817611     -0.53584698      0.42830438
C           3.29015680      0.84307667      0.10645393
C           4.15747512     -1.17366478      1.17580695
C           4.38986265      1.56172028      0.58148195
C           5.26687657     -0.44785393      1.62033180
H           4.04049221     -2.23161013      1.41585169
C           5.37689419      0.91216803      1.33392205
H           4.48312282      2.62690941      0.37693837
H           6.03658521     -0.95036369      2.20642958
H           6.23038429      1.47997490      1.70318796
O           2.27831987      1.37831535     -0.66313935
C           2.42419307      2.74856043     -1.12217575
H           3.28076561      2.82659988     -1.80317724
H           1.46482493      2.88913553     -1.65327994
H           2.50389357      3.43235779     -0.27288061
C          -2.75117004      0.03768643     -5.95677455
H          -2.04184741     -0.09905083     -6.79074220
H          -3.79329354     -0.12692365     -6.29540867
C          -2.40945268     -0.83001717     -4.72774703
H          -1.41135196     -0.52151186     -4.32510689
H          -3.13962967     -0.53559470     -3.91936136
C          -2.66727767     -2.96183675     -3.54310438
H          -2.74838562     -4.05582497     -3.59539888
H          -1.80708151     -2.72021867     -2.87080805
H          -3.59017161     -2.56490892     -3.04433685
C          -1.18922454     -2.84514664     -5.51660645
H          -1.21792086     -3.93076538     -5.70049137
H          -0.96325616     -2.34176783     -6.46949361
H          -0.31699125     -2.67316665     -4.83947251
C          -3.63036562     -2.74134387     -5.79567724
H          -3.77835910     -3.83233087     -5.79925844
H          -4.58566572     -2.28537698     -5.43741520
H          -3.48555657     -2.41202875     -6.83630521
N          -2.47536478     -2.33586164     -4.90844485
O          -2.59099630      1.39221745     -5.57797890
H          -3.22952195      1.61768540     -4.79680895
Cl         -5.73672427     -0.79781438     -3.79270710
C           2.96123387     -2.14320800     -4.50898921
H           3.62414521     -2.46965454     -3.67876890
H           3.40105063     -2.47224197     -5.47102622
C           2.78105910     -0.61246842     -4.47369079
H           3.54834528     -0.12493788     -5.12061987
C           1.36844038     -0.10625995     -4.82522905
H           1.40036938      0.85890391     -5.36589916
H           0.79184795     -0.85104690     -5.40425860
O           3.00118548     -0.09746184     -3.14241548
H           3.57951032     -0.72627160     -2.58717953
O           1.73572243     -2.85862686     -4.45171192
H           1.29735805     -2.74694772     -3.53388670
O           0.59027378      0.11371277     -3.63507545
H           1.18998417      0.50944325     -2.91571530
C           6.14190550     -0.39872399     -2.76985438
H           7.13111833     -0.81194856     -2.49552329
H           5.94550581     -0.57171522     -3.84446922
C           6.02470627      1.08531066     -2.38731156
H           5.83407972      1.18370078     -1.29180234
C           7.27606897      1.89222306     -2.78973406
H           7.92088044      1.37253717     -3.52093723
H           6.97888588      2.87636864     -3.20238682
O           4.96397952      1.74364529     -3.08380493
H           4.12399984      1.18075656     -3.08104032
O           5.13056366     -1.19853117     -2.12155662
H           5.22771689     -1.15587079     -1.13712622
O           8.12663389      2.05263336     -1.65211869
H           7.75370071      2.71795460     -1.03665665
          93
 Energy =     -1.00401815 a.u.  #Cluster:    3
C          -2.37794200      3.09846671      0.39387342
C          -1.04864628      2.66212343      0.32075651
C          -0.73785595      1.30383478      0.42810139
C          -1.75394901      0.34505386      0.58390384
C          -3.07211193      0.77036773      0.67137620
C          -3.38831281      2.15489447      0.57505109
H          -2.63495037      4.15214938      0.30221343
H          -0.25718465      3.39655191      0.16900007
H          -1.49899285     -0.71977905      0.64693062
O          -4.68179024      2.60127516      0.67376024
H          -5.30746025      1.81958236      0.71469898
O          -4.17402545     -0.02753697      0.91376709
C          -4.09238706     -1.39833592      0.43339538
H          -5.05760891     -1.80681868      0.74922714
H          -3.98510435     -1.40249403     -0.65449663
H          -3.25857456     -1.93140539      0.92094839
C           0.71078319      0.86952157      0.43866604
H           1.32581433      1.62402182      1.00774337
C           1.29325891      0.72845698     -0.98390068
H           1.41605792      1.74273345     -1.45302940
C           0.52855435     -0.22157843     -1.91497769
H           1.18978235     -1.02451447     -2.31212773
H          -0.35010070     -0.68697498     -1.42969234
O           0.80001667     -0.34983784      1.15604703
H           1.84998058     -0.45427964      1.67313947
O           0.06556776      0.46608918     -3.08781050
H          -0.26095014      1.36555594     -2.85820722
O           2.59297775      0.08165277     -0.92968308
C           3.64920400      0.64032480     -0.24280630
C           3.81291226      1.97764579      0.18367299
C           4.68615921     -0.28743674     -0.03964346
C           4.99509568      2.37376848      0.81694862
C           5.86151317      0.11786915      0.58987199
H           4.53714421     -1.31829382     -0.36512179
C           6.01595299      1.44173583      1.01603467
H           5.12874816      3.39923403      1.15175234
H           6.65723812     -0.60682775      0.76128417
H           6.93572518      1.74967013      1.51058418
O           2.74005671      2.83522560     -0.06273475
C           2.70471299      4.07699540      0.68746026
H           3.51914874      4.73158857      0.36557102
H           1.72952089      4.48915767      0.40201851
H           2.75622816      3.86856206      1.76592946
C           1.47921580      2.11742354      3.62744068
H           1.24322955      1.61104920      2.66369216
H           0.88066886      3.03927077      3.74216030
C           1.34930457      1.17731111      4.84268580
H           2.23482000      0.48142916      4.82267990
H           1.48835383      1.76948500      5.77338576
C           0.40026024     -1.07032521      5.28143042
H          -0.49802353     -1.68187741      5.45952881
H           0.95456288     -1.58154705      4.44104493
H           1.05019932     -1.13840016      6.16678902
C          -0.72846290      0.35650337      3.64291199
H          -1.65421158     -0.23715137      3.72495191
H          -1.01839199      1.36502039      3.30789733
H          -0.13564530     -0.11418695      2.78773301
C          -0.82106658      0.94132036      6.01534906
H          -1.76965784      0.38206532      6.10949847
H          -0.32414006      0.91067779      6.99955486
H          -1.08123977      1.99265765      5.79914579
N           0.06003315      0.36009115      4.92479260
O           2.82235647      2.58578558      3.57952068
H           3.43029480      1.85713654      3.25788832
Cl          2.97148881     -0.64899936      2.77287870
C          -0.69998226     -2.78363889      2.24496597
H          -0.41115891     -1.70819413      2.26463557
H          -1.34718300     -3.02370698      3.10319237
C           0.56546168     -3.66552992      2.22362340
H           0.31134757     -4.72819079      2.43718873
C           1.38463985     -3.53676239      0.91910089
H           2.40218968     -3.14971656      1.13072295
H           1.45979074     -4.50427601      0.38855362
O           1.33858296     -3.26859357      3.37006444
H           2.12563509     -2.71761458      3.09988909
O          -1.52568991     -3.01337292      1.10210325
H          -0.93010142     -2.94838351      0.27371930
O           0.74287834     -2.68286502     -0.02992739
H           0.87476270     -1.69210862      0.25273209
C           3.77515603      1.87406972     -3.46322477
H           3.30347058      1.07763926     -2.85195576
H           4.65183493      2.27916212     -2.92735208
C           2.75891081      2.97527550     -3.83227654
H           3.27710062      3.92289932     -4.10147343
C           1.78294076      2.56496070     -4.95471450
H           0.76693392      2.94391702     -4.73901911
H           2.12617313      2.93906834     -5.93772170
O           1.90346306      3.28003219     -2.71009243
H           2.40208079      3.24591090     -1.85234724
O           4.32857484      1.29637583     -4.64368489
H           3.57925677      0.84511819     -5.14146211
O           1.74142846      1.14657168     -5.14140133
H           1.24574312      0.71964164     -4.37081789
          93
 Energy =     -1.00401112 a.u.  #Cluster:    4
C          -3.42799326      1.64256307      1.85180122
C          -2.07964404      1.37782746      1.59709281
C          -1.63615148      0.06911749      1.36058688
C          -2.54434635     -1.00155785      1.37793374
C          -3.88177428     -0.74773879      1.65493923
C          -4.33282113      0.57654006      1.88037003
H          -3.78330807      2.65539251      2.03651080
H          -1.36306658      2.20330567      1.60751114
H          -2.19286777     -2.02597983      1.20116145
O          -5.64774642      0.84649389      2.15463875
H          -6.17930211     -0.00377747      2.11664494
O          -4.85053559     -1.73123527      1.82949568
C          -4.91838380     -2.71509624      0.76192001
H          -5.74052567     -3.35927159      1.09343888
H          -5.15166482     -2.22106550     -0.18539369
H          -3.97768180     -3.27348309      0.69965182
C          -0.15843610     -0.20919654      1.19843557
H           0.44348758      0.59902492      1.71019430
C           0.30844638     -0.32770212     -0.27163321
H           0.48618245      0.67988679     -0.70969922
C          -0.58710776     -1.17065003     -1.19766812
H          -0.01367234     -1.53489199     -2.07477958
H          -1.05136016     -2.02749367     -0.67401462
O           0.11365701     -1.40521300      1.91186325
H           1.27938182     -1.51815772      2.15458379
O          -1.59236975     -0.33649115     -1.77881705
H          -2.22612170     -0.03863397     -1.08953951
O           1.54264801     -1.10201388     -0.27974039
C           2.74498034     -0.52914773      0.07192298
C           2.98934137      0.76943225      0.56366690
C           3.81602326     -1.43382800     -0.07603572
C           4.28463515      1.14745798      0.94099143
C           5.09955606     -1.04235481      0.29255518
H           3.61653797     -2.43026745     -0.46937195
C           5.33482801      0.24195074      0.80520055
H           4.45704270      2.14053150      1.35126568
H           5.92729253     -1.74478760      0.19074218
H           6.34007822      0.52938459      1.10691863
O           1.90179848      1.62078365      0.76226063
C           2.03283099      2.94027114      0.17514582
H           2.29470954      2.86405572     -0.88352406
H           1.02599350      3.35371954      0.30949492
H           2.77575806      3.52061361      0.72844992
C          -1.67933905     -4.08615827      6.95847782
H          -0.73388511     -4.62175584      6.71711167
H          -1.78011784     -4.01673264      8.05762175
C          -1.74898839     -2.68951557      6.32588765
H          -2.80309196     -2.32743557      6.32793100
H          -1.16830533     -1.96692373      6.95264339
C          -1.31520883     -1.18953205      4.43496827
H          -0.78572077     -1.07916644      3.43381413
H          -2.35194976     -0.86307466      4.27198516
H          -0.81624760     -0.47670745      5.12215287
C          -2.02551200     -3.49438694      3.97094784
H          -1.55552098     -3.54969752      2.94880387
H          -2.11177836     -4.52880852      4.35318251
H          -3.04522485     -3.10443256      3.82182746
C           0.23298322     -3.04991593      4.85649573
H           0.56172190     -3.24999707      3.79855295
H           0.91743510     -2.24918339      5.21982955
H           0.41635767     -3.96838313      5.43313369
N          -1.21385622     -2.61893964      4.89571664
O          -2.67889214     -4.95430950      6.42748280
H          -3.56955032     -4.72373937      6.76684533
Cl          2.59221802     -1.83484450      2.93068469
C           0.80857040     -4.21819175     -0.60263501
H           1.31023398     -3.23232531     -0.51412494
H           0.05669137     -4.18345641     -1.41101867
C           0.17391748     -4.64915285      0.73505272
H          -0.44967588     -5.56213347      0.59707790
C           1.21311135     -4.87380616      1.86028323
H           1.02933505     -4.17604989      2.70637075
H           1.19206110     -5.91629017      2.22586988
O          -0.76964752     -3.66668708      1.15119742
H          -0.31273674     -2.72070296      1.24612337
O           1.74839274     -5.19608890     -1.04802798
H           2.45161449     -5.29942548     -0.34061530
O           2.56076769     -4.71896137      1.39926283
H           2.82511936     -3.75957084      1.43871007
C           1.42328276      1.54350997      3.82095596
H           1.39137627      0.72341347      3.06805276
H           1.70425634      2.47864587      3.29959732
C           2.38257359      1.23649494      4.98482038
H           2.50313976      2.12910467      5.64269093
C           1.97927007     -0.00157564      5.81402364
H           1.85308076     -0.91584615      5.19072395
H           2.72020816     -0.20457922      6.60530339
O           3.69592103      1.02594481      4.48117318
H           3.70967478      0.29189158      3.80491875
O           0.09695746      1.79650043      4.29560265
H          -0.18275022      1.04882392      4.88821988
O           0.67110580      0.15949302      6.40525881
H           0.68226431      0.88942427      7.06076455
          93
 Energy =     -1.00297283 a.u.  #Cluster:    5
C          -2.10177633     -1.06890464     -1.85389899
C          -0.98655000     -0.74545672     -1.07989727
C          -1.03143822     -0.84098587      0.32023444
C          -2.19605081     -1.26145803      0.97654879
C          -3.30412259     -1.60125314      0.20539465
C          -3.26370056     -1.49737266     -1.20426494
H          -2.08413573     -0.98932353     -2.94152010
H          -0.06218374     -0.41966643     -1.57136331
H          -2.21373994     -1.31583001      2.06686444
O          -4.33436019     -1.89232056     -1.97422567
H          -5.14094695     -2.00657921     -1.39308367
O          -4.48611972     -2.16000789      0.68433502
C          -4.97865911     -1.61393326      1.93528113
H          -5.98423854     -2.04632987      1.99804405
H          -4.34396008     -1.95543827      2.75849091
H          -5.01749786     -0.52172833      1.88945786
C           0.20346617     -0.49663560      1.11247065
H           0.64056872      0.47665522      0.77072836
C           1.26908292     -1.61134756      1.01204754
H           1.55414983     -1.79928282     -0.05295857
C           0.90993501     -2.92653491      1.72116602
H           1.80778254     -3.34535594      2.21795272
H           0.09605031     -2.79411565      2.45898447
O          -0.19930506     -0.33072548      2.48795419
H           0.61405317     -0.21572645      3.03478267
O           0.42414344     -3.88883653      0.79420222
H           0.85652884     -3.74497141     -0.20212549
O           2.42456887     -1.13788732      1.77309358
C           3.36054433     -0.32785000      1.16759228
C           3.36894290      0.16062864     -0.15831098
C           4.40015313      0.02416511      2.04832769
C           4.42004154      0.97714662     -0.59577052
C           5.43930451      0.83675388      1.59857942
H           4.37800056     -0.35520418      3.06866478
C           5.45261085      1.31099293      0.28107667
H           4.41612541      1.35233569     -1.61816634
H           6.24727278      1.10337477      2.27954225
H           6.26872758      1.94567415     -0.05935916
O           2.28020504     -0.10784372     -0.97853917
C           2.60721694     -0.72597596     -2.25588428
H           3.22333872     -1.61839496     -2.10192524
H           1.61344044     -1.01813949     -2.62694816
H           3.08865415      0.00300611     -2.90868953
C          -2.76023126     -5.81708023      1.53486598
H          -2.34194400     -5.43803231      2.48794522
H          -3.86282499     -5.88652254      1.62386910
C          -2.34544739     -4.87404508      0.39183541
H          -3.07355930     -4.02618552      0.36401098
H          -1.34668778     -4.38199714      0.63741188
C          -2.17538545     -4.39535876     -2.01869001
H          -1.87706742     -4.78986542     -3.02139721
H          -3.13598658     -3.86516566     -2.13079436
H          -1.39523409     -3.64656215     -1.75735961
C          -3.44220078     -6.37166057     -1.27893763
H          -3.39250818     -6.78908369     -2.29914448
H          -3.48534847     -7.22354706     -0.56399707
H          -4.38211755     -5.80649429     -1.18178080
C          -0.98364372     -6.33112611     -1.09255425
H          -0.78730898     -6.64220301     -2.13907405
H          -0.09975773     -5.74988346     -0.75034367
H          -1.04630433     -7.23560890     -0.45412014
N          -2.24112312     -5.49901372     -0.98932993
O          -2.37240418     -7.17016008      1.34182566
H          -1.37082912     -7.27984225      1.42760893
Cl          1.35541187     -3.73070771     -1.84011942
C          -0.10766208     -3.18575680     -4.96541742
H           0.52914750     -2.60591917     -4.27120484
H          -1.16750526     -3.05575987     -4.68541235
C           0.28924091     -4.67683025     -5.00988707
H          -0.28642121     -5.22018566     -5.79265585
C           1.80811311     -4.86489364     -5.20849770
H           2.39251754     -4.35965330     -4.41858575
H           2.07634236     -5.93562426     -5.24242670
O          -0.08148864     -5.30590783     -3.78860471
H           0.46954303     -4.89238868     -3.00028367
O          -0.01561452     -2.60480549     -6.27018412
H           0.80996248     -2.94585914     -6.71465930
O           2.10786059     -4.29245217     -6.50363674
H           3.03721142     -3.99280318     -6.52576158
C           2.98121199     -6.49983535      0.05171086
H           4.06997543     -6.51430053     -0.13721464
H           2.57330140     -5.50827213     -0.22446740
C           2.61955355     -6.93106685      1.48685488
H           3.32087572     -6.52126275      2.24417082
C           1.15287693     -6.62286749      1.84225708
H           0.96938763     -6.68468334      2.92691417
H           0.79810377     -5.63999383      1.44582696
O           2.72793923     -8.36356626      1.59025133
H           2.85049211     -8.74808467      0.67106077
O           2.47375741     -7.51405566     -0.83267083
H           1.48453655     -7.50157278     -0.78563120
O           0.31943927     -7.59886636      1.17763995
H           0.63606211     -8.50631194      1.45582090
          93
 Energy =     -0.99988180 a.u.  #Cluster:    6
C          -3.24106788      1.35788167     -0.68248455
C          -2.16321837      0.91862652      0.09366831
C          -2.29750784     -0.19707858      0.92883320
C          -3.51730841     -0.88799599      1.02006600
C          -4.59314428     -0.44746279      0.25953099
C          -4.45798245      0.67836751     -0.59785448
H          -3.15151482      2.22779930     -1.33459885
H          -1.22041524      1.47216854      0.04679980
H          -3.60250318     -1.74424432      1.69196650
O          -5.50131795      1.12683526     -1.36469092
H          -6.32419575      0.59024662     -1.17067955
O          -5.84693783     -1.03552980      0.19477286
C          -6.28832547     -1.73527179      1.38593121
H          -7.34024689     -1.94187083      1.15210634
H          -5.71945736     -2.66292095      1.50011026
H          -6.19300556     -1.09380997      2.26696638
C          -1.11349154     -0.65901286      1.74113316
H          -0.68575473      0.17863294      2.34608276
C          -0.02368922     -1.26380168      0.82639520
H           0.24199621     -0.55609547     -0.00224663
C          -0.35806259     -2.64723311      0.25966928
H           0.37513458     -3.41417876      0.59659294
H          -1.38264331     -2.97551558      0.51727062
O          -1.58329394     -1.66591784      2.65775396
H          -0.81678284     -1.99975425      3.17758254
O          -0.18973546     -2.62107368     -1.16604446
H          -0.94361418     -2.15201108     -1.58798915
O           1.14498860     -1.51415295      1.67235712
C           1.99429131     -0.43312699      1.90643546
C           2.44100443      0.47217479      0.91182498
C           2.48528033     -0.34967855      3.21283701
C           3.36483251      1.46587769      1.24437606
C           3.42146347      0.63874590      3.52841654
H           2.13388318     -1.05560403      3.96262393
C           3.85207934      1.54250910      2.55111445
H           3.71245378      2.18152576      0.48419376
H           3.80970513      0.70664349      4.54366240
H           4.57626739      2.31775664      2.80725705
O           1.95622418      0.24495879     -0.36221685
C           1.92445601      1.37508774     -1.28021714
H           2.93742385      1.56829704     -1.65341120
H           1.26963416      1.00984163     -2.07690518
H           1.48744825      2.26283131     -0.78831495
C           3.82900388     -3.32435095      0.59843737
H           4.46261512     -4.16055627      0.25192230
H           4.30456844     -2.85365389      1.48395354
C           3.54292718     -2.26241289     -0.46279377
H           2.55014969     -1.78316630     -0.23569400
H           4.30441309     -1.43161147     -0.37895802
C           3.05676716     -1.61490982     -2.78354769
H           2.95423100     -1.91608610     -3.83539328
H           2.08970485     -1.19777435     -2.44056722
H           3.79516744     -0.76220460     -2.75622146
C           2.50711620     -3.89319834     -2.03658476
H           2.53292656     -4.34474438     -3.03768465
H           2.67940276     -4.68470015     -1.28138750
H           1.46611511     -3.53384008     -1.84889439
C           4.87284981     -3.21732459     -2.33273428
H           4.90492974     -3.46142902     -3.40453617
H           5.62604075     -2.39680454     -2.15203415
H           5.20963184     -4.09742288     -1.76503527
N           3.49861815     -2.76207201     -1.90031790
O           2.61322947     -3.95882464      1.00175605
H           1.98483370     -3.26188927      1.35639068
Cl          4.96530485      3.27751189     -1.59949347
C           6.91322977      0.23584064     -1.41499210
H           6.71711680      1.11228230     -0.76345204
H           7.72962909     -0.36739782     -0.98780120
C           7.21549399      0.69457470     -2.86004172
H           7.97746594      0.03680806     -3.33894119
C           5.97113705      0.81277505     -3.77457732
H           6.07346957      1.69458818     -4.43710403
H           5.84444524     -0.09349070     -4.39060547
O           7.90280618      1.94499338     -2.79825498
H           7.30864996      2.66051495     -2.44877556
O           5.76616884     -0.62160641     -1.37418420
H           4.98947075     -0.08738117     -1.84822580
O           4.75471764      0.93675035     -3.04356027
H           4.76288082      1.96341193     -2.49067171
C           1.19149343      4.57003514      0.76442056
H           0.70025665      5.53667300      0.97146086
H           1.02644929      3.88299265      1.61316475
C           2.68790233      4.74127307      0.44669403
H           3.16468970      3.74766420      0.25033925
C           2.93505810      5.70662002     -0.73057920
H           2.42825186      6.67771011     -0.59219266
H           4.01391883      5.86534576     -0.90589407
O           3.25307937      5.31089696      1.63860911
H           4.23022335      5.23248338      1.61000095
O           0.53854440      3.93795825     -0.34463673
H           0.82033423      4.40835303     -1.19285047
O           2.32068704      5.15774145     -1.90985893
H           2.93312947      4.49009787     -2.31959580
          93
 Energy =     -0.99635403 a.u.  #Cluster:    7
C          -2.78689482      4.26740710      0.32599934
C          -1.89165742      3.24682511      0.66849825
C          -2.29550326      1.90600068      0.67338573
C          -3.61755474      1.56238401      0.35312201
C          -4.50896195      2.56528109     -0.01419962
C          -4.08794265      3.91874686     -0.02743491
H          -2.48662973      5.31484809      0.34112099
H          -0.86162297      3.51592762      0.93124857
H          -3.93556739      0.51246253      0.37464651
O          -4.95654777      4.92885564     -0.41003103
H          -5.88728469      4.56394259     -0.49984242
O          -5.80893637      2.40920214     -0.43597803
C          -6.43418062      1.11994571     -0.16353332
H          -7.44729831      1.27694437     -0.54770858
H          -5.90897632      0.32905497     -0.71739748
H          -6.42991820      0.93514270      0.91972028
C          -1.31319438      0.80205885      1.02800195
H          -0.85858140      0.97299878      2.04087626
C          -0.18438789      0.71459636     -0.03175139
H          -0.06757391      1.67455551     -0.58641045
C          -0.28086609     -0.45902902     -1.01997777
H           0.73027809     -0.80085576     -1.31554624
H          -0.83789748     -1.32053004     -0.60424806
O          -2.00298295     -0.42729916      1.22173312
H          -2.37185203     -0.77491815      0.36155255
O          -0.91254192      0.01506420     -2.19880990
H          -2.03107760     -0.32413220     -2.19860521
O           1.00811938      0.51159264      0.80652639
C           2.20424725      0.81919715      0.17061583
C           2.56490491      2.15094311     -0.13334061
C           3.09209591     -0.22825916     -0.09657080
C           3.79005558      2.42833429     -0.74648710
C           4.32225127      0.05825258     -0.69556141
H           2.81248228     -1.24876155      0.16561547
C           4.66125682      1.37288246     -1.03348415
H           4.04688256      3.45741321     -0.99075625
H           5.01742774     -0.75346997     -0.91001270
H           5.61549016      1.58070229     -1.51585716
O           1.69330273      3.21272449      0.09164964
C           1.48575753      3.48805666      1.50614138
H           2.34075116      4.05608290      1.88002528
H           0.56697068      4.09461132      1.49527012
H           1.34069143      2.56076603      2.07278603
C          -2.84152958      5.29481372     -3.44334558
H          -2.25189222      5.09553789     -2.52850089
H          -2.41193264      6.17412309     -3.96971451
C          -2.87009375      4.09910411     -4.41048819
H          -3.62880889      4.29836187     -5.20155715
H          -1.86996045      4.01753759     -4.91958572
C          -3.04594482      1.65907265     -4.78906529
H          -3.25246448      0.66270149     -4.33313564
H          -3.74967470      1.79807970     -5.62214220
H          -2.01327299      1.61378956     -5.20685177
C          -4.58332359      2.72689679     -3.21511737
H          -4.77005383      1.79504387     -2.63108537
H          -4.78251383      3.58333180     -2.54474724
H          -5.32942062      2.76911002     -4.02391596
C          -2.18331759      2.51226915     -2.64465314
H          -2.42657656      1.59615852     -2.05554984
H          -1.15527568      2.32331558     -3.03524807
H          -2.12959362      3.35382629     -1.93670842
N          -3.17174604      2.75433678     -3.75153328
O          -4.17336640      5.69032592     -3.11901887
H          -4.39297394      5.47320072     -2.17053406
Cl         -3.59868426     -0.58512727     -2.01412993
C          -3.71212869      3.07846980      3.76940519
H          -3.33967063      3.24706869      2.74232347
H          -3.03981255      2.37534208      4.29630638
C          -5.16923965      2.57722249      3.75510328
H          -5.45777273      2.16567306      4.75025543
C          -6.20156108      3.62725302      3.29471144
H          -6.82662933      3.21952893      2.47772690
H          -6.84390018      3.95293001      4.13664725
O          -5.32135541      1.50482945      2.80247567
H          -4.53399094      0.91888499      2.78592216
O          -3.59834634      4.28355896      4.52204182
H          -4.18369443      4.97709862      4.09678612
O          -5.58843502      4.85778685      2.87868162
H          -5.28053776      4.79807034      1.94605563
C           0.58949737      1.73479320     -4.55836798
H           1.66851064      1.94680265     -4.53039065
H           0.17689248      1.81008644     -3.52549957
C           0.24287382      0.37813416     -5.20656761
H          -0.84324822      0.37185976     -5.47912196
C           1.10721126      0.08761494     -6.44646511
H           2.16221599     -0.07885659     -6.17886152
H           0.72366950     -0.78110910     -7.01175674
O           0.51690900     -0.68118998     -4.30922021
H          -0.08074915     -0.56972979     -3.46228562
O          -0.08762374      2.77028175     -5.29905749
H           0.18370577      2.67180584     -6.25751562
O           0.96427883      1.24427480     -7.30929318
H           1.82732686      1.47767457     -7.69901791
          93
 Energy =     -0.99552284 a.u.  #Cluster:    8
C          -4.53099798      3.01293976      0.40728179
C          -3.28691727      2.45718086      0.70138007
C          -3.15612916      1.08126955      0.96563489
C          -4.28015355      0.24471387      0.95792332
C          -5.53252586      0.80936278      0.72931480
C          -5.66156207      2.18390294      0.41973774
H          -4.64705916      4.07765317      0.19876056
H          -2.40464158      3.10579573      0.75621832
H          -4.16913501     -0.82289012      1.16437996
O          -6.88345018      2.74254853      0.16970928
H          -7.59305717      2.03346319      0.22091999
O          -6.73464566      0.13809731      0.93965181
C          -6.97011547     -1.00462990      0.07371881
H          -7.98431197     -1.30648767      0.35214220
H          -6.91543589     -0.70726171     -0.97932113
H          -6.24536205     -1.79741033      0.28443381
C          -1.80819766      0.53090311      1.35111235
H          -1.31602071      1.18935292      2.12461853
C          -0.84707884      0.33985015      0.15312332
H          -0.46955448      1.31738131     -0.22685471
C          -1.39293351     -0.52338926     -0.99162039
H          -0.56921161     -0.92743648     -1.61443475
H          -2.02280310     -1.36463334     -0.64035944
O          -2.04771837     -0.74621935      1.98341462
H          -1.18882265     -1.24674060      2.00215156
O          -2.13848180      0.30340280     -1.90669410
H          -2.90377221      0.71988129     -1.44524877
O           0.23137948     -0.49360950      0.67007695
C           1.41456755      0.09828519      1.08606903
C           1.58781283      1.43561367      1.52813524
C           2.48862104     -0.79711200      1.10511462
C           2.83097958      1.84338138      2.02002942
C           3.72932348     -0.37290820      1.59275442
H           2.33926628     -1.81485558      0.74590087
C           3.89516146      0.93464306      2.05115142
H           2.97799458      2.85819312      2.38387889
H           4.56450911     -1.07069744      1.61217191
H           4.86165054      1.25748431      2.43712327
O           0.48141238      2.24593165      1.39958095
C           0.54358267      3.57789660      1.97544585
H           1.37166928      4.14597051      1.54906404
H          -0.43090410      3.99075141      1.67388171
H           0.59687168      3.50246119      3.06707996
C          -5.25774140      3.38212983      4.62569897
H          -6.19725648      3.59204699      5.16732006
H          -4.38835513      3.41525661      5.32191630
C          -5.32407638      2.06368718      3.82508562
H          -6.28634755      2.04087215      3.26625416
H          -4.53030208      2.11590966      3.02811778
C          -3.73653603      0.23972863      4.46102566
H          -3.58081033     -0.69409132      5.01772789
H          -3.47299816      0.04755518      3.39844873
H          -2.98145565      0.98049303      4.83335551
C          -6.12263243     -0.25342552      4.10520232
H          -5.95123588     -1.24487870      4.55292772
H          -7.16495939      0.04144023      4.31070294
H          -6.03736075     -0.37097085      3.00035972
C          -5.39424706      0.99123758      6.10048390
H          -5.36454730      0.04357956      6.65932018
H          -4.58583259      1.64169400      6.53939576
H          -6.36352641      1.47542011      6.28589574
N          -5.13953760      0.77661798      4.62494275
O          -5.17319550      4.43780850      3.67954167
H          -4.24904935      4.49364943      3.30410027
Cl         -2.21285891      3.27964728      3.58188255
C          -0.47346204      2.34876453      6.72089931
H          -0.38028356      2.20708136      5.62602517
H          -0.36748750      1.37439105      7.22754946
C          -1.82141878      3.02511550      7.06476530
H          -2.16958893      2.73906129      8.08211015
C          -1.78848011      4.56532940      6.94025318
H          -2.77008512      4.94950001      6.61028382
H          -1.49404038      5.04374909      7.89309068
O          -2.81177419      2.49519845      6.19682299
H          -2.56038879      2.76097311      5.13889789
O           0.63995079      3.10422591      7.19750962
H           0.60996742      4.01245730      6.77518081
O          -0.77387972      5.02219071      6.03171513
H          -1.00784127      4.75751595      5.10286948
C          -3.68169454     -3.53821783     -1.88467774
H          -3.93213670     -4.33943874     -2.60188800
H          -3.82740902     -3.91076009     -0.85341361
C          -4.49172375     -2.25173430     -2.14498919
H          -4.24716676     -1.47298882     -1.38368293
C          -4.29217743     -1.70773536     -3.57582070
H          -4.57252258     -2.44269666     -4.35229983
H          -4.86536920     -0.77747394     -3.73461581
O          -5.88463514     -2.49299532     -1.91458683
H          -6.22969535     -3.18649291     -2.51405552
O          -2.28746074     -3.25333361     -1.96069276
H          -2.09781048     -2.79659442     -2.84289874
O          -2.90157188     -1.47927082     -3.81112397
H          -2.58486401     -0.68519194     -3.26125448
          93
 Energy =     -0.99364821 a.u.  #Cluster:    9
C          -3.20820705      3.12696736      0.48310222
C          -2.04657626      2.35206538      0.56166792
C          -2.11887651      0.95581064      0.55022082
C          -3.36195804      0.30312701      0.47278231
C          -4.51932445      1.07005796      0.39753929
C          -4.44005214      2.48564633      0.40174057
H          -3.13851214      4.22134173      0.48332539
H          -1.07703966      2.87004166      0.62862330
H          -3.39528486     -0.78876988      0.48923362
O          -5.58506483      3.26587374      0.32348675
H          -6.38687079      2.66988906      0.23357139
O          -5.81387256      0.60264012      0.26158414
C          -6.07717413     -0.73110043      0.76965992
H          -7.16827165     -0.79708309      0.67982216
H          -5.58248504     -1.47175016      0.13347611
H          -5.75546964     -0.81270660      1.81267297
C          -0.85283641      0.13491669      0.60721822
H          -0.12535913      0.53598785      1.37089250
C          -0.15939996      0.08385427     -0.77648042
H           0.01283389      1.11346531     -1.17261296
C          -0.89190748     -0.78899484     -1.81124901
H          -0.17789608     -1.22421761     -2.53900989
H          -1.48221963     -1.59411873     -1.33708679
O          -1.24701182     -1.17755038      1.04666316
H          -0.47190544     -1.84134254      0.91463914
O          -1.73525108      0.03663031     -2.61444883
H          -2.47875301      0.39242827     -2.07677926
O           1.11774885     -0.60870561     -0.60267906
C           2.29076630      0.12617704     -0.50761900
C           2.43097603      1.42134499      0.05211500
C           3.41615761     -0.58792362     -0.93211406
C           3.70632796      1.98011292      0.18464779
C           4.68566424     -0.02163390     -0.78387546
H           3.28640637     -1.57507776     -1.37576190
C           4.82660667      1.25301129     -0.23072615
H           3.83500240      2.97084613      0.61609310
H           5.56393787     -0.57844837     -1.10669207
H           5.81887847      1.68983944     -0.11944504
O           1.25893543      2.02080581      0.45246055
C           1.31649529      3.41469611      0.86617090
H           1.75076628      4.03847092      0.08100772
H           0.23853768      3.65019090      0.98048883
H           1.84606591      3.50047937      1.81670753
C          -5.03432424      6.07058958      2.24919942
H          -4.01325753      5.72543415      1.98855663
H          -5.00018954      6.61980718      3.21068109
C          -5.69202795      6.91890761      1.13573864
H          -6.46190971      6.29024521      0.62520934
H          -6.25213803      7.76425681      1.59096680
C          -5.44368696      8.38149729     -0.84365122
H          -4.75525766      8.73320176     -1.66877797
H          -6.28049197      7.87298411     -1.34685298
H          -5.82447587      9.27905367     -0.33791501
C          -4.12134596      6.31923451     -0.69272278
H          -3.33643679      6.69085876     -1.40247499
H          -3.59578284      5.57922374     -0.04124655
H          -4.88551933      5.78073041     -1.27441726
C          -3.61753798      8.23892133      0.79372194
H          -2.87950656      8.65354023      0.03753395
H          -4.01020462      9.06891886      1.39025380
H          -2.98109581      7.59348415      1.43185084
N          -4.70733455      7.45958645      0.10411763
O          -5.88009491      4.96533118      2.52292752
H          -5.76546099      4.25634470      1.82367224
Cl         -1.03645322      5.99784511      0.40832538
C          -2.58517192      9.38714039     -3.64029548
H          -2.03061610      8.90379568     -4.46592037
H          -3.26465205     10.15250868     -4.05158973
C          -1.61875073      9.97703700     -2.59173717
H          -2.16472384     10.58779751     -1.84271899
C          -0.77461492      8.88549875     -1.89204308
H          -0.19898613      8.28554192     -2.62033259
H          -0.07989441      9.31705712     -1.15145095
O          -0.76075999     10.83253740     -3.36771356
H          -0.14857107     11.32283279     -2.78711284
O          -3.44356725      8.41482058     -3.03541208
H          -2.86670602      7.84078178     -2.38529869
O          -1.71077487      8.05971385     -1.23099526
H          -1.20609374      7.13861866     -0.60198297
C           1.75107030     -0.78411932      2.78045106
H           1.18274956     -0.14412219      2.06523403
H           2.83427822     -0.61990328      2.63022251
C           1.36394848     -2.27028808      2.62658655
H           2.22619675     -2.94051101      2.84292893
C           0.13503305     -2.68922835      3.45904061
H          -0.40400702     -3.51662995      2.95948279
H           0.43080295     -2.99030895      4.48241501
O           0.97818842     -2.56017221      1.25752051
H           1.48485684     -2.01350101      0.60308432
O           1.51723425     -0.31894263      4.10433602
H           0.53731476     -0.42971414      4.31321706
O          -0.76438966     -1.59806009      3.67978612
H          -1.16599567     -1.30795193      2.79107557
          93
 Energy =     -0.99287458 a.u.  #Cluster:   10
C          -3.80178153      2.92365186     -0.47512664
C          -2.57010264      2.65880710      0.14151716
C          -2.28255878      1.39078877      0.64991075
C          -3.24172742      0.36222696      0.58090060
C          -4.46363147      0.61585304     -0.02398946
C          -4.74459614      1.90341827     -0.56515970
H          -4.01625572      3.90314283     -0.90643026
H          -1.83856097      3.46260541      0.20953075
H          -3.01570183     -0.62517697      0.99979492
O          -5.93532370      2.18079896     -1.18886317
H          -6.50526709      1.36084581     -1.22547886
O          -5.51617362     -0.26650874     -0.16430514
C          -5.21533527     -1.67905891     -0.00302735
H          -6.15235336     -2.14883460     -0.32215599
H          -4.37841476     -1.97413848     -0.64299172
H          -5.00278646     -1.89347200      1.05042843
C          -0.93053441      1.13466134      1.28875121
H          -0.36494845      2.09038475      1.43895599
C          -0.07152607      0.19463958      0.40846085
H           0.16012249      0.69490390     -0.56255238
C          -0.63517869     -1.21066627      0.13262992
H           0.16618553     -1.97663409      0.16658279
H          -1.44532212     -1.49902547      0.83357785
O          -1.13738049      0.65712703      2.60689754
H          -0.97936303     -0.42373761      2.73021145
O          -1.11045008     -1.28149066     -1.20910948
H          -1.80614809     -0.58724246     -1.38850781
O           1.15247314     -0.06516719      1.16372487
C           2.33875340      0.47851855      0.73318909
C           2.51875818      1.69868910      0.04781579
C           3.46350264     -0.28504850      1.09791674
C           3.80416973      2.14546952     -0.27920494
C           4.73999405      0.17938602      0.78856013
H           3.31573226     -1.22876392      1.62477878
C           4.91234110      1.38565137      0.09646429
H           3.93280757      3.07803227     -0.82556134
H           5.61142797     -0.40704487      1.08186651
H           5.91427811      1.73078019     -0.15252617
O           1.37697643      2.39301847     -0.36348904
C           1.34701917      3.80067853     -0.00019591
H           2.12885563      4.34570522     -0.53560191
H           0.34901393      4.10691462     -0.34011450
H           1.45453713      3.90748529      1.08322262
C          -4.15994262      0.51909181      7.61039818
H          -3.98429544     -0.46917100      8.06996001
H          -3.28649708      1.18011662      7.79609215
C          -4.51594158      0.42155388      6.11513714
H          -5.27548951     -0.37676180      5.95366034
H          -5.01053182      1.37762704      5.81143866
C          -3.81805096      0.05120511      3.78796806
H          -2.94591508     -0.03354453      3.07774653
H          -4.42693218     -0.85638662      3.62618426
H          -4.38736954      0.93650739      3.47116419
C          -2.64299037     -1.12911433      5.60013971
H          -1.78202477     -1.36017794      4.87774499
H          -2.20985618     -1.09722865      6.60481179
H          -3.31247732     -1.99962625      5.50168135
C          -2.32989647      1.29692872      5.30154145
H          -1.45062557      1.11670529      4.61744246
H          -2.77299385      2.25342367      4.98420312
H          -1.90678851      1.41058863      6.31047181
N          -3.31744488      0.15822975      5.21014288
O          -5.22093726      1.20151466      8.27355096
H          -5.98714944      0.60654863      8.42175686
Cl         -3.07723785     -2.94352493      2.59803790
C          -1.24855495      3.39480484     -3.56752081
H          -1.26369835      3.26518027     -4.66341255
H          -0.72287305      4.33593988     -3.32438360
C          -0.62064562      2.19249263     -2.84005186
H          -0.83332647      2.24923506     -1.74546488
C          -1.09746417      0.83781512     -3.39137928
H          -1.19754282      0.82713970     -4.48594539
H          -0.42845035      0.01232313     -3.06808583
O           0.78929408      2.25914426     -3.08183560
H           1.26816104      2.24708069     -2.20861903
O          -2.58942957      3.60553783     -3.11109882
H          -3.02190211      2.72731585     -2.94128916
O          -2.38810584      0.62667138     -2.76010952
H          -2.96388578      0.09377165     -3.34572818
C           1.68660830      0.05575877      4.39065724
H           2.12341637      0.09386944      3.37765113
H           2.45232196      0.33682579      5.13908227
C           1.09572801     -1.32851238      4.72193518
H           0.34122193     -1.23187793      5.53393716
C           0.48801088     -2.09554813      3.52574511
H           1.00709516     -1.87125529      2.57417059
H           0.50703333     -3.18276446      3.71679555
O           2.23610336     -2.05845866      5.22133113
H           1.96919706     -2.93979691      5.53938477
O           0.67534543      1.05493559      4.51828828
H           0.06722335      1.01445915      3.69574969
O          -0.85666432     -1.67500544      3.42211656
H          -1.71911756     -2.49945799      2.94488343
          93
 Energy =     -0.99121585 a.u.  #Cluster:   11
C          -4.30087565      1.35684563      0.75822129
C          -3.00087578      1.24691859      1.26007968
C          -2.47029316     -0.00497838      1.59770061
C          -3.22838780     -1.17726313      1.44536512
C          -4.50999435     -1.07190676      0.91435206
C          -5.04908438      0.19577404      0.57439839
H          -4.72584596      2.33491836      0.50792710
H          -2.39041863      2.15798814      1.35688645
H          -2.80670088     -2.14360759      1.73503613
O          -6.28458630      0.30059965     -0.02690217
H          -6.80348950     -0.54033450      0.12266205
O          -5.35567933     -2.11505898      0.56954226
C          -5.16727017     -3.36309848      1.28833979
H          -5.98461935     -3.97864524      0.89989753
H          -4.18535313     -3.79503465      1.03381918
H          -5.26214176     -3.19781301      2.36428458
C          -1.04475839     -0.06499613      2.08370087
H          -0.82975256      0.75747760      2.80959814
C          -0.03750435      0.00423675      0.91176431
H           0.10550649      1.06594157      0.58679908
C          -0.31009231     -0.90006311     -0.29859516
H           0.64239998     -1.19532817     -0.78148000
H          -0.88024819     -1.81535750     -0.02201393
O          -0.85065244     -1.31940605      2.77248878
H          -0.05419800     -1.23686630      3.35092496
O          -1.12499889     -0.23348577     -1.23727969
H          -0.67345316      0.72699390     -1.56662941
O           1.17133275     -0.50056726      1.57372595
C           2.37630156     -0.21279489      0.93931138
C           2.74741476      1.09431887      0.52679628
C           3.25585527     -1.28479068      0.78244021
C           3.99353279      1.30263906     -0.07211356
C           4.50994526     -1.05876317      0.20444708
H           2.95431622     -2.28534648      1.10365601
C           4.86758590      0.22052483     -0.22721960
H           4.28652395      2.29385079     -0.40781604
H           5.20122688     -1.89062494      0.08458614
H           5.83938648      0.38352531     -0.69228579
O           1.81462278      2.06774507      0.79013993
C           1.86942802      3.29007000      0.00779350
H           1.91524243      3.06355822     -1.06393058
H           0.89469255      3.74536517      0.25754746
H           2.70582693      3.90384441      0.34446494
C          -3.54320459     -2.49712447     -2.76186559
H          -2.71875750     -2.59894762     -3.49364337
H          -3.39109713     -3.23475761     -1.94667505
C          -3.67844178     -1.09537567     -2.17370916
H          -4.66184901     -0.99749126     -1.65586048
H          -2.88316827     -0.95418472     -1.36827595
C          -3.56119875      1.34767362     -2.38729369
H          -3.25429551      2.21147651     -3.00316226
H          -4.55777341      1.54604107     -1.95971569
H          -2.83098485      1.30948115     -1.53949786
C          -4.67218439      0.03634698     -4.15713893
H          -4.52500923      0.78068206     -4.95588595
H          -4.77661708     -0.96681345     -4.62598285
H          -5.63488339      0.25311252     -3.66195480
C          -2.21651035     -0.05400733     -3.91071447
H          -1.93399350      0.90522768     -4.38368886
H          -1.37829082     -0.27401929     -3.19352992
H          -2.23270242     -0.84068587     -4.67589431
N          -3.52834677      0.05077346     -3.16884114
O          -4.70736837     -2.84823303     -3.52164648
H          -5.45696838     -3.03986150     -2.91800799
Cl         -0.44515174      2.24035770     -2.26858428
C          -1.12808474     -4.24688457      0.58320557
H          -0.65941673     -4.92062866     -0.15324888
H          -1.33699080     -3.26265480      0.10518323
C          -0.27273227     -4.07247640      1.85325205
H          -0.83472651     -3.48553407      2.61958561
C           0.21590849     -5.41404065      2.43111954
H           0.86101858     -5.95450314      1.72052290
H           0.75394025     -5.26697180      3.38527959
O           0.93340642     -3.39732144      1.48248990
H           0.83228823     -2.40547182      1.62542406
O          -2.42053891     -4.76225187      0.92647496
H          -2.29930848     -5.48647517      1.60778452
O          -0.97837019     -6.17945928      2.72383045
H          -0.80345677     -7.13160450      2.59844581
C          -3.47025500      4.74974687      0.12449522
H          -3.36503666      5.07698997      1.17220722
H          -4.03143549      3.79243818      0.09928151
C          -2.10999484      4.62868475     -0.58700399
H          -2.25735483      4.34856873     -1.65505043
C          -1.24769322      5.90880296     -0.48324707
H          -0.47788536      5.80130592      0.29985486
H          -0.76478090      6.15289366     -1.44757790
O          -1.39643226      3.59492361      0.08994016
H          -0.94776232      2.97637323     -0.62227150
O          -4.31108079      5.66233733     -0.58698259
H          -3.81250465      6.51902313     -0.71627643
O          -2.06636302      7.06644466     -0.22247174
H          -2.17230051      7.18930222      0.74372668
          93
 Energy =     -0.98779278 a.u.  #Cluster:   12
C          -3.05467759      0.65527698      1.98940431
C          -1.77020727      0.18673425      1.74000309
C          -1.55593253     -1.02060993      1.06027770
C          -2.66118495     -1.74539092      0.57620345
C          -3.94300735     -1.27461200      0.80348403
C          -4.18980183     -0.07749251      1.56496084
H          -3.20903248      1.60575975      2.50629699
H          -0.91432668      0.77039621      2.08499360
H          -2.52530364     -2.69458013      0.05263767
O          -5.38999834      0.28795099      1.87700803
H          -6.48826590     -0.70842581      2.05297858
O          -4.98549372     -2.10458827      0.40038156
C          -5.95355051     -1.47025918     -0.48121330
H          -6.72780680     -2.24052108     -0.56345882
H          -6.35202685     -0.55662894     -0.01943134
H          -5.48207583     -1.26117936     -1.44324980
C          -0.14844542     -1.47961789      0.84017175
H           0.56010344     -0.98772494      1.55995207
C           0.34381908     -1.22561608     -0.60393746
H           0.41399632     -0.13179901     -0.81416440
C          -0.44093343     -1.92969986     -1.72550451
H           0.23157050     -2.18678670     -2.57062674
H          -0.96386064     -2.83569983     -1.37346831
O          -0.03760966     -2.89508666      1.16054033
H           0.69343974     -3.28327524      0.61994788
O          -1.36857040     -1.01303185     -2.30181417
H          -2.07604424     -0.78284158     -1.65234292
O           1.65500793     -1.86628577     -0.68237170
C           2.79405047     -1.12438748     -0.43199208
C           2.87986945      0.10816426      0.26934340
C           3.95699228     -1.73490274     -0.91537456
C           4.12392622      0.70804165      0.47217840
C           5.19854075     -1.12737988     -0.69915944
H           3.87572501     -2.67685950     -1.45732936
C           5.28014371      0.08458830     -0.01322474
H           4.20673475      1.65170689      1.00509037
H           6.10164499     -1.60594144     -1.07583733
H           6.24872667      0.55638193      0.14833083
O           1.67393896      0.61719463      0.71784445
C           1.67079163      1.93459062      1.31981527
H           2.02595106      2.68151896      0.60361902
H           0.59975714      2.07193524      1.53467291
H           2.26246217      1.93509552      2.23889420
C          -4.48119002     -0.65691881      5.08265018
H          -3.52191589     -0.50700447      5.61084071
H          -4.40610406     -0.31354889      4.03338547
C          -4.97311173     -2.11636972      5.18375492
H          -4.98293764     -2.40239203      6.25864566
H          -6.05006534     -2.13400964      4.86643370
C          -4.01722808     -4.40369462      5.17156033
H          -3.54645006     -5.20523078      4.55294050
H          -3.38652807     -4.25245419      6.06016959
H          -4.99553847     -4.79174623      5.49879613
C          -2.79449454     -2.61274807      4.02371405
H          -2.23078047     -3.36272869      3.41296410
H          -2.83879389     -1.71679833      3.36958512
H          -2.20338689     -2.37221859      4.91641956
C          -4.89903912     -3.47055990      3.08859161
H          -4.30311576     -4.16765686      2.45968147
H          -5.89361459     -3.90344238      3.27524542
H          -5.06753452     -2.57249259      2.45139939
N          -4.17141584     -3.12805660      4.36551964
O          -5.44107854      0.11370291      5.79240367
H          -5.89599284      0.75757520      5.13986594
Cl         -7.46294886     -1.46167047      2.65667221
C          -6.28288742      4.38877502      2.70315215
H          -5.87218498      3.89855639      1.80197873
H          -6.52714447      5.43928696      2.47107744
C          -5.33289122      4.26536457      3.91096292
H          -5.83091397      4.63462432      4.83421944
C          -4.78940363      2.83707034      4.10359574
H          -3.93251852      2.64414491      3.42076249
H          -4.47478041      2.66331772      5.14864375
O          -4.13952762      5.03754009      3.66644008
H          -4.32984859      5.99114480      3.74476790
O          -7.53846557      3.80038383      3.04333803
H          -7.36499415      2.85750816      3.34636328
O          -5.84696323      1.90188044      3.85379279
H          -5.66561477      1.38113767      2.95701577
C          -1.76941687     -5.74391735      2.08197847
H          -0.91595415     -6.04422951      1.44403947
H          -1.47071722     -5.75502105      3.14617219
C          -2.98913264     -6.64184598      1.83373848
H          -3.65190300     -6.18537448      1.06282054
C          -2.57594721     -8.08504074      1.47859698
H          -1.96643580     -8.54416511      2.28305027
H          -3.44775142     -8.73003796      1.28018924
O          -3.69748994     -6.68880726      3.09282290
H          -4.59231136     -7.06229721      2.96708350
O          -2.20418126     -4.41952926      1.75134773
H          -1.43488364     -3.86218766      1.39079204
O          -1.69230619     -8.08021787      0.35657122
H          -2.17487772     -7.83709787     -0.46275747
          93
 Energy =     -0.98761213 a.u.  #Cluster:   13
C          -4.51526920      2.22368779      2.70335075
C          -3.24647624      1.65506323      2.53608088
C          -3.02497291      0.69082198      1.54468623
C          -4.09308205      0.20856620      0.77793913
C          -5.34253763      0.80042072      0.90408959
C          -5.55273075      1.82065694      1.85656743
H          -4.70990521      2.96260289      3.47770609
H          -2.41576793      1.97582381      3.17804945
H          -3.90839185     -0.62832835      0.07773588
O          -6.75090928      2.50661948      1.91579045
H          -7.45172147      1.98314306      1.42767609
O          -6.38591913      0.54087046      0.01678601
C          -6.79168646     -0.85984995     -0.04948566
H          -7.62946388     -0.82681739     -0.75260502
H          -5.96320413     -1.47308977     -0.44754089
H          -7.10012961     -1.20615557      0.93906130
C          -1.63320640      0.19096780      1.18434117
H          -1.01807532     -0.03424260      2.08935891
C          -0.93560462      1.33947666      0.36291779
H          -1.32832852      2.35597326      0.59957197
C          -0.97362391      1.11104724     -1.14838421
H          -0.04553366      1.41218099     -1.66397359
H          -1.19450258      0.05177734     -1.40452071
O          -1.78573636     -0.94897224      0.41505023
H          -0.71979276     -1.42762457      0.05539156
O          -1.99442727      1.97027978     -1.69897128
H          -2.84495700      1.44971942     -1.81191311
O           0.39577459      1.32400207      0.97428910
C           1.50010074      1.60220170      0.19036214
C           1.72545316      2.84769145     -0.43337544
C           2.46209448      0.58571666      0.10983290
C           2.92273493      3.08377735     -1.11862677
C           3.65319462      0.82978145     -0.57372652
H           2.23646648     -0.39440908      0.55027143
C           3.88254500      2.07069084     -1.18186822
H           3.10011415      4.04764805     -1.58768422
H           4.39953128      0.03783930     -0.64885558
H           4.81538630      2.24727700     -1.71558998
O           0.75844926      3.83731199     -0.27109744
C           0.24073790      4.40887143     -1.50038555
H          -0.40970142      3.66839928     -1.98665067
H          -0.32682527      5.27146951     -1.13683314
H           1.04931538      4.72599218     -2.16239403
C          -5.17819190      6.22046904      0.93987542
H          -5.78986428      6.34072441      1.85204970
H          -4.10030000      6.16577641      1.24397884
C          -5.64644346      5.00148332      0.13447562
H          -5.91763558      4.16990253      0.84383839
H          -6.58107896      5.24967666     -0.41492211
C          -5.19525722      3.31282367     -1.60779779
H          -4.44333734      2.83798345     -2.28258521
H          -5.52875506      2.50760155     -0.92072582
H          -6.05775216      3.59924088     -2.22689425
C          -3.36538392      4.04206778     -0.13361695
H          -2.61835339      3.56893924     -0.82329747
H          -2.85828456      4.88930624      0.38478185
H          -3.59136231      3.27762024      0.63207559
C          -4.23869311      5.56269702     -1.85706294
H          -3.43730672      5.21880726     -2.53410121
H          -5.10343263      5.86448752     -2.46859272
H          -3.88280147      6.48202426     -1.34075223
N          -4.60536594      4.48597608     -0.85929823
O          -5.23657883      7.39678017      0.13098136
H          -6.13386411      7.78658725      0.13369958
Cl          0.41623456     -2.01926929     -0.79203249
C          -2.34504660     -2.40937542     -2.82443046
H          -1.35044508     -1.93174098     -2.90130455
H          -2.68027508     -2.76818093     -3.81312902
C          -3.38269212     -1.49933764     -2.13554798
H          -2.93557288     -1.01333225     -1.21181762
C          -4.01353952     -0.47622892     -3.08190938
H          -3.30630600     -0.08820866     -3.83701633
H          -4.91533372     -0.88609126     -3.57361560
O          -4.47536829     -2.31037774     -1.65716571
H          -4.10956505     -3.23107680     -1.47108186
O          -2.27581258     -3.60016973     -2.03241893
H          -1.59095897     -3.47929599     -1.31056653
O          -4.39698923      0.71491415     -2.35682361
H          -5.06465492      0.48151671     -1.65500426
C          -1.81829860      4.89294649      2.89530870
H          -1.63501775      5.30874563      3.89934601
H          -2.66826695      4.19052243      2.94433349
C          -0.56354503      4.24445951      2.28766300
H          -0.76658453      3.90350033      1.23760847
C           0.67109787      5.17152022      2.31629726
H           1.34535901      4.91450392      3.14950786
H           1.23085813      5.12710369      1.35647524
O          -0.28733450      3.09825067      3.09847609
H           0.13438878      2.38953425      2.51862032
O          -2.26254602      5.94098878      2.01519331
H          -1.49169303      6.57959408      1.88437310
O           0.26026064      6.55397821      2.40074373
H           0.26255294      6.84633765      3.33553965
          93
 Energy =     -0.98690665 a.u.  #Cluster:   14
C          -2.45375414      2.78586403      0.55754900
C          -1.63970883      1.66614681      0.46621906
C          -1.53552665      0.75024001      1.52335170
C          -2.37369959      0.89978432      2.64560901
C          -3.18851850      2.01544443      2.74647312
C          -3.22898560      3.02460407      1.72248976
H          -2.52178393      3.49820910     -0.26156337
H          -1.05579016      1.50888883     -0.44526017
H          -2.37622117      0.15206451      3.43889390
O          -3.89007168      4.12181989      1.91532610
H          -3.35446315      5.21504859      1.28286151
O          -3.88431801      2.18417710      3.94970130
C          -5.32874010      2.22948875      3.76922846
H          -5.69500317      2.38358158      4.78606258
H          -5.58789071      3.06658873      3.10554055
H          -5.67366473      1.27771943      3.35783793
C          -0.55230745     -0.38485848      1.53434533
H           0.09636378     -0.33556921      2.44262652
C           0.35080000     -0.48791372      0.27841486
H           0.42157371      0.48909867     -0.25442825
C          -0.01789107     -1.62350678     -0.69609894
H           0.42073714     -1.46184290     -1.69880101
H           0.30472716     -2.60705264     -0.30556507
O          -1.36815687     -1.58562483      1.64484264
H          -0.82148616     -2.33845330      1.95151425
O          -1.42960744     -1.63204240     -0.93247058
H          -1.91156539     -1.66715775     -0.03639294
O           1.67816035     -0.90899201      0.72721780
C           2.59697790      0.00878524      1.16672564
C           2.56894288      1.41415729      1.07107567
C           3.70655256     -0.61668023      1.77783155
C           3.62755484      2.18247288      1.57775209
C           4.75461220      0.15416547      2.26727486
H           3.72071085     -1.70531751      1.84428027
C           4.71862859      1.55400425      2.17127361
H           3.58155525      3.26970297      1.50072459
H           5.61370776     -0.33419723      2.72946375
H           5.54894817      2.14544433      2.55383413
O           1.43131338      2.05667329      0.57002728
C           1.65784132      2.85979719     -0.62671131
H           2.03621339      2.22461002     -1.43154824
H           0.64718877      3.23569533     -0.84357448
H           2.34520420      3.68149510     -0.41078030
C          -0.35238018      4.47397278      2.73725688
H          -1.03455793      4.17967203      1.91415099
H          -0.18862683      5.56923715      2.68378568
C          -0.83713478      3.98109672      4.10938877
H          -1.46510893      3.05910413      3.98163987
H           0.06144056      3.64394574      4.70156126
C          -1.62918829      4.51034117      6.37765786
H          -2.24641024      5.16035049      7.01830266
H          -2.03574931      3.48505950      6.45016630
H          -0.60205099      4.50352140      6.80824358
C          -3.04242335      5.08955012      4.45687907
H          -3.65654536      5.75477390      5.07447190
H          -3.10876964      5.44446565      3.40121215
H          -3.53669873      4.08249598      4.41034906
C          -0.97161792      6.35752527      4.89259813
H          -1.51132524      7.08437238      5.51989328
H           0.07975521      6.31212521      5.25204711
H          -0.96476409      6.75857770      3.85557935
N          -1.62139108      4.99334345      4.93900302
O           0.94667399      3.90191416      2.51053550
H           0.89714496      3.16883427      1.81403103
Cl         -2.46704775      6.33154272      1.09582715
C          -4.12775638     -3.80238516     -4.45400818
H          -4.48990653     -2.78292424     -4.22881006
H          -4.68403510     -4.20437232     -5.31799579
C          -4.20792067     -4.72811974     -3.22308020
H          -3.72621902     -5.70725333     -3.43816967
C          -3.59741885     -4.08412033     -1.96368072
H          -4.10961331     -3.14426945     -1.69633555
H          -3.62500418     -4.78080007     -1.10684219
O          -5.58719650     -4.92524627     -2.86314196
H          -6.01453223     -5.54725452     -3.48179513
O          -2.77347635     -3.73123152     -4.90459048
H          -2.18377569     -3.59654998     -4.10021293
O          -2.21588771     -3.83963703     -2.28570934
H          -1.90021256     -3.00375587     -1.81174333
C           2.77511507      4.75234584      6.66784146
H           3.38452562      5.44807475      6.06322005
H           2.76382223      5.08983997      7.71925244
C           3.26982896      3.29709784      6.53730564
H           2.66080340      2.61527285      7.17046000
C           3.28438165      2.80511046      5.07278886
H           3.88162015      3.46097005      4.41887360
H           3.65061989      1.76630002      4.98705421
O           4.62556074      3.34242046      7.00459043
H           4.92094577      2.45550420      7.29297322
O           1.41197572      4.84478608      6.23326133
H           1.29342238      4.21870368      5.43005522
O           1.90290538      2.80337731      4.67258649
H           1.79014357      3.06383496      3.69499049
          93
 Energy =     -0.98497447 a.u.  #Cluster:   15
C          -2.42080724      2.85304326     -0.72145671
C          -1.60493436      1.98594739      0.01522681
C          -2.12947260      0.81537791      0.58025804
C          -3.49725866      0.53168517      0.48715630
C          -4.31026818      1.38404848     -0.26147287
C          -3.77387703      2.53962127     -0.86913227
H          -2.02493681      3.77333806     -1.14892282
H          -0.54684166      2.25054483      0.16793783
H          -3.90870665     -0.34195732      1.00096953
O          -4.55897584      3.35842534     -1.64328252
H          -5.51703701      3.07199720     -1.56356294
O          -5.64941657      1.14789019     -0.56194801
C          -6.48145446      0.77374656      0.57022833
H          -7.48788941      0.79849144      0.13432945
H          -6.21954549     -0.23446809      0.90551546
H          -6.37653752      1.50235519      1.38011239
C          -1.24274437     -0.15572805      1.33334439
H          -0.96712843      0.29071938      2.33343634
C           0.06925273     -0.50419104      0.56931542
H           0.05846131     -0.10907092     -0.47337573
C           0.39488638     -2.00891000      0.57687157
H           1.31086485     -2.24961066      0.01671156
H           0.47999962     -2.40200162      1.61333143
O          -1.99828601     -1.34470115      1.53655104
H          -1.61971829     -1.85892863      2.46372437
O          -0.66442662     -2.69834154     -0.10705229
H          -1.51868226     -2.51487463      0.45673912
O           1.09003662      0.17419912      1.35342901
C           2.17914506      0.61893739      0.60651658
C           2.32012817      2.00197857      0.36957219
C           3.16028751     -0.27894971      0.17597479
C           3.43456290      2.47620443     -0.34333313
C           4.26629892      0.19803097     -0.52925199
H           3.06453909     -1.33899642      0.41465754
C           4.39354653      1.57268293     -0.79744764
H           3.53107100      3.54430238     -0.52670521
H           5.03556836     -0.49258773     -0.86289148
H           5.25909432      1.93486575     -1.34802592
O           1.36407455      2.93388082      0.72356060
C           1.07495404      2.99782881      2.15422578
H           1.88334630      3.54444466      2.64336760
H           0.12592010      3.55069424      2.18369626
H           0.95700769      1.99069159      2.58606181
C          -1.53053068     -3.70099021     -3.29142995
H          -0.86330494     -4.50723771     -2.92745305
H          -2.54599801     -3.86818444     -2.87433301
C          -0.96048933     -2.33036901     -2.92580986
H          -0.57305505     -2.39286000     -1.84353018
H          -0.07957892     -2.09375726     -3.55819901
C          -1.25634658      0.10968747     -2.69765075
H          -1.95395872      0.97158804     -2.69649666
H          -0.78868180      0.08830635     -1.67639166
H          -0.45562731      0.32727364     -3.42228481
C          -3.06243648     -1.39646634     -1.97365636
H          -3.76068724     -0.53590058     -1.93120973
H          -3.66558281     -2.29525107     -2.17725429
H          -2.63383969     -1.51091740     -0.94460388
C          -2.56864261     -1.09568791     -4.38736509
H          -3.34559712     -0.31605290     -4.45248645
H          -1.79532091     -0.87399399     -5.14437862
H          -3.02532870     -2.05925664     -4.69895497
N          -1.96979680     -1.18766986     -3.00098567
O          -1.73174201     -3.81699766     -4.70411420
H          -0.90620981     -4.08590252     -5.16043575
Cl          0.90241864     -0.43121483      4.13882727
C          -2.90317798      0.57214344      4.33916540
H          -2.23640886     -0.31676085      4.36223731
H          -3.41146825      0.62594577      3.35802014
C          -2.14009804      1.87092763      4.65782122
H          -2.83346941      2.74277292      4.64276361
C          -1.34238174      1.80802092      5.97992543
H          -0.29086242      1.51278192      5.80289385
H          -1.36366340      2.78124555      6.50385615
O          -1.23961197      2.17097480      3.58581937
H          -0.57082787      1.43870239      3.45588048
O          -3.96527817      0.37303116      5.27878014
H          -3.56923464      0.44835836      6.20393720
O          -1.96883482      0.89576122      6.89651955
H          -1.41596364      0.05355194      6.96364793
C          -1.58602821     -2.71817797      4.65322469
H          -2.10551604     -1.78702568      4.97480200
H          -2.34114569     -3.47716725      4.38265159
C          -0.61000549     -3.24188730      5.72005132
H           0.44078127     -3.14871607      5.34420902
C          -0.75953128     -2.57929823      7.09796291
H          -1.81293833     -2.47348441      7.41744130
H          -0.20493948     -3.15132103      7.86734450
O          -0.87796094     -4.62954425      6.00196122
H          -0.72833837     -5.16362347      5.19533924
O          -0.83886965     -2.44580627      3.47368340
H           0.01196774     -1.58222510      3.72101903
O          -0.25094923     -1.23511485      7.10472191
H           0.49939832     -1.12149273      6.46585634
          93
 Energy =     -0.98326489 a.u.  #Cluster:   16
C          -3.07925815      2.54058338      0.36026595
C          -1.93365185      1.76736512      0.54089076
C          -2.02249052      0.37319041      0.70433111
C          -3.26630344     -0.26392256      0.71103856
C          -4.41028268      0.50672642      0.51086118
C          -4.32977389      1.90335279      0.34045036
H          -3.02647680      3.62039943      0.23161677
H          -0.94863725      2.24760533      0.54607660
H          -3.32642280     -1.34558648      0.86658315
O          -5.44274403      2.67199599      0.12587755
H          -6.25761146      2.08966424      0.11420780
O          -5.66947256     -0.08137678      0.32838776
C          -6.21913965     -0.69715797      1.52802927
H          -7.18727311     -1.07290251      1.18012126
H          -5.56905507     -1.51082033      1.86422217
H          -6.33552901      0.05829191      2.31027020
C          -0.76824246     -0.45318008      0.82602593
H           0.02782797      0.08390959      1.41374177
C          -0.22534519     -0.78877025     -0.58969325
H          -0.37023831      0.06869398     -1.28053660
C          -0.78688278     -2.08461257     -1.19786202
H          -0.01181373     -2.60193869     -1.81523517
H          -1.17600857     -2.77969571     -0.43278471
O          -1.12026236     -1.64800796      1.53474063
H          -0.26938586     -2.09359918      1.85985611
O          -1.82592853     -1.72648019     -2.12299102
H          -2.71115221     -1.69039786     -1.66508069
O           1.20129627     -1.06968375     -0.43766758
C           2.09825355     -0.10212961     -0.87368121
C           2.23320727      1.17778416     -0.28433099
C           2.97913596     -0.51226180     -1.87821969
C           3.25666059      2.03351459     -0.70828415
C           3.99964989      0.34726835     -2.29193872
H           2.87132936     -1.52549640     -2.30872073
C           4.13361571      1.61173472     -1.71262251
H           3.37302089      3.01598163     -0.26018607
H           4.69251740      0.02028180     -3.06711554
H           4.92988223      2.27909686     -2.04039929
O           1.29523053      1.52521978      0.67408589
C           1.75598981      2.40708810      1.73583026
H           1.84082294      3.42678954      1.35647905
H           0.95024032      2.31581304      2.47739945
H           2.70425541      2.03843623      2.15100141
C          -1.97630775     -1.94983343     -7.42969672
H          -2.50566619     -1.25433128     -8.11085852
H          -1.20076393     -2.49632922     -8.00147878
C          -1.41883064     -1.16444094     -6.23244029
H          -0.97131162     -0.21146750     -6.58941367
H          -2.27903142     -0.87688965     -5.56707931
C           0.10780126     -0.97570463     -4.32048904
H           0.88536689     -1.49188970     -3.68515188
H           0.57614366     -0.07603615     -4.73302329
H          -0.70526376     -0.69465951     -3.62118903
C           0.77604359     -2.35236721     -6.24976056
H           1.56404765     -2.84142126     -5.59961858
H           0.48223601     -3.11389137     -6.98735848
H           1.25608997     -1.50840359     -6.75906727
C          -1.02197229     -3.12706486     -4.75026983
H          -0.24642413     -3.75711733     -4.23866966
H          -1.74047911     -2.82859089     -3.95294992
H          -1.54343252     -3.75870478     -5.49121299
N          -0.38877274     -1.91819105     -5.39361029
O          -2.87426170     -2.97684281     -7.02664356
H          -3.59202675     -2.59367781     -6.43305948
Cl          1.96725748     -3.51717821     -3.40236412
C          -4.30208592     -2.22218751     -3.92000289
H          -4.73397344     -3.23390480     -4.00473800
H          -3.21400988     -2.30168225     -3.67282895
C          -5.05479889     -1.33934936     -2.91026936
H          -4.72546549     -0.27659612     -2.98756649
C          -6.58432000     -1.44823244     -3.07798172
H          -6.94396565     -2.47826758     -2.91806947
H          -7.12329714     -0.75480805     -2.40751080
O          -4.68354843     -1.86259714     -1.63074574
H          -5.11843763     -1.32552079     -0.90026405
O          -4.33762052     -1.58129046     -5.20710215
H          -5.28650572     -1.30182907     -5.39499809
O          -6.84035876     -1.02773783     -4.43869436
H          -7.66806933     -1.43613856     -4.76407547
C           1.63356465     -1.06917128      3.97245889
H           2.14374443     -1.84565255      4.56791390
H           0.53787299     -1.17798164      4.08772193
C           2.05551758     -1.08267128      2.49490603
H           1.60623711     -0.20248100      1.95668772
C           3.58072130     -1.09834501      2.29462647
H           4.08105894     -1.87446779      2.89694567
H           3.84936368     -1.21810698      1.22768256
O           1.50451163     -2.28753578      1.93829225
H           1.62339229     -2.26401064      0.93742500
O           1.92008377      0.21915143      4.52980394
H           2.83302499      0.49697864      4.24532411
O           4.01008979      0.21517773      2.73187795
H           4.98495785      0.23807587      2.80022668
          93
 Energy =     -0.98102097 a.u.  #Cluster:   17
C          -2.10514407      3.40067052      0.01836730
C          -1.03419886      2.51601817      0.19900345
C          -1.25979344      1.19742735      0.59114956
C          -2.57158763      0.71509707      0.77699697
C          -3.63962940      1.58598189      0.60460941
C          -3.40087056      2.94406234      0.24528193
H          -1.93855958      4.44379546     -0.26531168
H          -0.01145226      2.87503315      0.02759132
H          -2.73154054     -0.32782126      1.05560633
O          -4.41519019      3.86910475      0.16419914
H          -5.30611146      3.44072607      0.31490494
O          -4.97761634      1.30403651      0.74937628
C          -5.33729887     -0.02660359      1.20717084
H          -6.43253541      0.04700451      1.25815961
H          -5.02846698     -0.77448960      0.46945866
H          -4.90842497     -0.21688780      2.19569148
C          -0.08451597      0.28450390      0.84454407
H           0.80807506      0.84779038      1.24295065
C           0.31544467     -0.49913635     -0.42222091
H           0.51634062      0.21896287     -1.25610979
C          -0.69352358     -1.57584525     -0.86704190
H          -0.17964350     -2.41643999     -1.37674673
H          -1.29712710     -1.96589602     -0.02620181
O          -0.42868702     -0.69317760      1.86701451
H          -1.01297927     -0.27744450      2.55007482
O          -1.52900871     -1.03065838     -1.88683622
H          -2.13453682     -0.35260793     -1.51302646
O           1.52025215     -1.26954484     -0.12709284
C           2.75581779     -0.77581846     -0.51019871
C           3.14094773      0.58592831     -0.56823227
C           3.70037520     -1.78080247     -0.75870341
C           4.47795708      0.92057790     -0.80761583
C           5.03359910     -1.43335550     -0.99325722
H           3.38505641     -2.82208618     -0.76941103
C           5.42122439     -0.09151105     -1.00822652
H           4.78322933      1.96508627     -0.84102758
H           5.77030012     -2.21583797     -1.17140558
H           6.46314716      0.17374343     -1.18664808
O           2.12763691      1.51648484     -0.44608660
C           2.49307885      2.79974283      0.13135902
H           3.20981638      3.32054400     -0.50575954
H           1.51669961      3.31459364      0.13980997
H           2.87079477      2.64477127      1.15248975
C           2.30600561     -2.27830566      3.69317919
H           1.75457645     -2.86539848      4.45384607
H           3.28707564     -1.97242653      4.10637064
C           2.46427206     -3.00913265      2.35850787
H           2.41038630     -2.23713894      1.54109135
H           3.47127149     -3.46741933      2.27645177
C           1.50036766     -4.45925791      0.62466123
H           0.70194130     -5.19855891      0.36583284
H           1.33009457     -3.58076158     -0.02886920
H           2.47024272     -4.91155163      0.38501816
C           0.02797622     -3.56593996      2.34944657
H          -0.80591265     -4.51118055      2.04338081
H          -0.20632285     -3.36718545      3.38842748
H          -0.28338270     -2.73996143      1.70858848
C           1.65671759     -5.28765936      2.94089760
H           0.87338997     -6.06345073      2.74259862
H           2.63646044     -5.73749302      2.73487659
H           1.58381394     -5.05358401      4.01407274
N           1.39203629     -4.06634465      2.08591907
O           1.60419359     -1.04426476      3.52375721
H           0.88472321     -1.12359613      2.79924627
Cl         -1.48985229     -5.88910843      1.58164941
C           1.23160979      3.52766228      3.66140715
H           0.32037861      3.59288179      3.02796972
H           2.07427977      4.04625352      3.17190175
C           1.58168979      2.07676559      4.03346060
H           2.39677708      2.05828081      4.79422455
C           0.34425461      1.30444530      4.54580190
H          -0.35779302      1.06132438      3.73152465
H           0.64179982      0.36710647      5.06101243
O           2.07242316      1.47651420      2.82861508
H           2.25303461      0.49538517      2.99071648
O           0.99680088      4.26971635      4.87236422
H           0.56702498      3.63922823      5.55858367
O          -0.28471615      2.11075721      5.54915156
H          -1.17409194      2.48540458      5.20474520
C          -2.30333948      3.94759228      3.35028361
H          -1.28995403      3.74114682      2.94173846
H          -3.03258096      3.25351668      2.89686535
C          -2.70557542      5.42444325      3.16924101
H          -3.69851423      5.61319595      3.63542815
C          -1.63470948      6.39743625      3.71363924
H          -0.83254483      6.55976912      2.97387768
H          -2.08216862      7.37106601      3.98882385
O          -2.76004082      5.74396388      1.77479596
H          -3.52453537      5.28959451      1.33697900
O          -2.31564278      3.61036389      4.74810844
H          -1.98773106      4.42586243      5.27927623
O          -1.10966154      5.87829736      4.94141605
H          -0.19594135      5.44506624      4.78978984
          93
 Energy =     -0.97987157 a.u.  #Cluster:   18
C          -4.31870526      2.19190915     -1.33886341
C          -3.07845414      2.32436754     -0.71188736
C          -2.94504569      2.05942380      0.65562933
C          -4.05992776      1.66037523      1.40468632
C          -5.29873429      1.51752810      0.78866375
C          -5.44240955      1.79220470     -0.60055733
H          -4.44008605      2.39992008     -2.40162820
H          -2.21675260      2.63684840     -1.29904323
H          -3.94403143      1.49050740      2.48123468
O          -6.60547569      1.72342082     -1.29835285
H          -7.35613281      1.24756549     -0.77747574
O          -6.46295173      1.16244577      1.46342574
C          -6.30113510      0.68041818      2.82843830
H          -7.33724904      0.47776747      3.12300863
H          -5.67767674     -0.21993556      2.84665350
H          -5.86552425      1.46652078      3.45710429
C          -1.59737625      2.22511369      1.32394256
H          -1.14488227      3.21597528      1.04993030
C          -0.63709694      1.08816781      0.88415418
H          -0.42844437      1.15749585     -0.20553597
C          -1.08637199     -0.33687144      1.24749639
H          -0.21538099     -1.00694475      1.38115233
H          -1.72138428     -0.37788169      2.15219950
O          -1.67122628      2.31077272      2.72935858
H          -2.17661866      1.49244638      3.19153433
O          -1.77804318     -0.89207930      0.12606057
H          -2.66951331     -0.48271770      0.04377813
O           0.59869476      1.28815977      1.65398983
C           1.73161982      1.60043617      0.92597407
C           1.86397263      2.81507623      0.20217464
C           2.81456735      0.72629551      1.03391067
C           3.07115610      3.12861683     -0.42449601
C           4.02713978      1.05613919      0.41689787
H           2.69639273     -0.20507514      1.58948082
C           4.14919565      2.24116899     -0.31063358
H           3.18502916      4.04809472     -0.99227467
H           4.87420145      0.37530868      0.49757466
H           5.09309188      2.48461312     -0.79928525
O           0.74981076      3.62893989      0.23793486
C           0.63099374      4.64467398     -0.78958057
H           0.72454701      4.19923623     -1.78419883
H          -0.38929093      5.01668283     -0.61722565
H           1.37140025      5.43164658     -0.62704510
C           1.10330847      5.04834559      3.64050100
H           1.14206381      5.48933052      2.62586118
H           0.24534726      5.48803524      4.19047135
C           1.04646394      3.52621947      3.54835879
H           0.29690163      3.22302431      2.74731074
H           2.01716499      3.11906351      3.18875309
C           0.56391213      1.33390065      4.53355930
H          -0.16275863      1.14869760      3.70091298
H           1.52693065      0.91081424      4.22717151
H           0.16053751      0.76844432      5.41162496
C          -0.68813948      3.31353298      5.32427414
H          -1.04596730      2.71073371      6.19431573
H          -0.65261492      4.36905579      5.62104279
H          -1.47019382      3.18941467      4.53672376
C           1.68684087      3.03383051      5.91422835
H           1.33790881      2.62184381      6.87881614
H           2.64186806      2.54607216      5.66421007
H           1.89668489      4.11509696      6.05139859
N           0.65010306      2.81210031      4.83522519
O           2.23300639      5.48410527      4.40671293
H           3.06237187      5.38024838      3.89818597
Cl         -2.74285429      0.36765647      4.49912842
C         -10.41844556     -1.55632141     -1.21241843
H         -10.41668004     -2.35540275     -0.44966580
H         -11.19777220     -1.77583127     -1.96407415
C          -9.02999882     -1.36705145     -1.85675463
H          -9.02150343     -0.47031500     -2.51695801
C          -7.90068757     -1.28181733     -0.81361089
H          -7.92029702     -2.12602515     -0.10423750
H          -6.90859915     -1.21750544     -1.29753805
O          -8.70602609     -2.55100080     -2.60368365
H          -9.06646317     -2.49168363     -3.51058059
O         -10.84709046     -0.33274355     -0.61118610
H         -10.08556053      0.06034061     -0.10335867
O          -8.16006475     -0.04544895     -0.10413803
H          -7.60629222      0.00650541      0.73007636
C           0.30678825     -0.69919345      7.79419547
H           1.00885626      0.09159782      8.10652281
H           0.61176011     -1.09827603      6.80924665
C          -1.15186580     -0.19388982      7.76012510
H          -1.84624948     -1.02701089      7.51081183
C          -1.57863917      0.49686343      9.07473757
H          -1.00791493      1.42073536      9.24757789
H          -2.66063347      0.72180232      9.06880222
O          -1.20316658      0.82098692      6.77502299
H          -1.92413854      0.57240085      5.96149260
O           0.44989206     -1.81320963      8.67892542
H          -0.11072237     -1.65433845      9.48962403
O          -1.35471758     -0.45000793     10.14599706
H          -1.03211472      0.01371836     10.94096954
          93
 Energy =     -0.97952700 a.u.  #Cluster:   19
C          -3.93202364      2.38651725      0.02392105
C          -2.71333673      2.08772293      0.62498439
C          -2.62234335      1.09367374      1.61448408
C          -3.76254362      0.38052224      1.98778552
C          -4.98506307      0.65944646      1.37257830
C          -5.08977857      1.67694277      0.39845738
H          -4.01691922      3.16133046     -0.73510890
H          -1.82331507      2.64242363      0.32772292
H          -3.71083722     -0.39284097      2.76501526
O          -6.23975376      2.06168949     -0.21592812
H          -7.08342469      1.71157065      0.27373554
O          -6.10573064     -0.06536255      1.80323414
C          -6.19951736     -1.37422949      1.16084021
H          -7.04533352     -1.83551674      1.67947938
H          -6.38824756     -1.24517146      0.09252338
H          -5.27196520     -1.93630230      1.33784015
C          -1.31381646      0.85902165      2.34180022
H          -1.05471142      1.82435219      2.87403570
C          -0.14530914      0.53632966      1.35528634
H          -0.43751262      0.66119047      0.28983212
C           0.53664174     -0.82217875      1.56026993
H           1.63202340     -0.72567687      1.66608706
H           0.13509129     -1.37215776      2.43651336
O          -1.41082380     -0.09228201      3.34493869
H          -1.83476379     -1.21303165      2.91044048
O           0.35989182     -1.59180468      0.36886167
H          -0.49859099     -2.09372929      0.42762253
O           0.79148867      1.62665563      1.70767686
C           1.87246755      1.87607774      0.90016719
C           2.61102221      3.03726502      1.23999049
C           2.29229173      1.08718393     -0.17776164
C           3.77252738      3.37618424      0.54365276
C           3.45708937      1.43280178     -0.86768219
H           1.72352982      0.20060174     -0.48253611
C           4.20346569      2.55839468     -0.50475187
H           4.32310160      4.27236528      0.82803844
H           3.78618700      0.81079536     -1.70224601
H           5.11403091      2.81046332     -1.04551934
O           2.26725816      3.87923461      2.30280660
C           0.95998178      4.50744463      2.15719855
H           0.17697722      3.74181247      2.08942854
H           0.87954326      5.11110068      3.06698394
H           0.96831830      5.14000541      1.26381023
C           3.29862352      1.96871651      5.34732114
H           4.24446520      2.01562811      5.93080448
H           3.41079599      1.23334566      4.52976003
C           2.13453626      1.65274569      6.29602247
H           2.44616418      0.85728619      7.00908691
H           1.93449825      2.56420613      6.93918777
C          -0.18780740      0.85428594      6.63989683
H          -1.13385700      0.53999411      6.13795399
H           0.15036644      0.00601731      7.25635099
H          -0.42531570      1.69794675      7.30807547
C           1.07874955      0.06070336      4.69720377
H           0.08161954     -0.25375360      4.19525591
H           1.74461395      0.30620228      3.85537158
H           1.46572178     -0.81332775      5.23253848
C           0.30629361      2.40278814      4.80522858
H          -0.64528570      2.12289830      4.28111714
H           0.09997631      3.28312829      5.44550486
H           1.01874235      2.70908075      4.01133977
N           0.84511930      1.24056271      5.59944686
O           3.17568381      3.28678623      4.80415453
H           2.78643290      3.27046666      3.86760891
Cl         -2.20316781     -2.55314563      2.35753552
C          -6.99150485      3.10446102      2.74550015
H          -6.55799808      3.64968909      1.88605437
H          -6.26319753      2.34583276      3.09570281
C          -8.36094696      2.48194779      2.41237519
H          -8.83096471      2.05567767      3.32864309
C          -9.31298343      3.46989085      1.71425254
H          -8.86485125      3.90799516      0.80694193
H         -10.27534607      2.98648981      1.46392031
O          -8.21114273      1.42802611      1.44043905
H          -7.63273901      0.68361620      1.81411785
O          -7.12222100      4.00139849      3.85060928
H          -7.94978604      4.54380931      3.72563524
O          -9.56776252      4.49724401      2.69987132
H          -9.84309563      5.32295688      2.25522900
C           3.17027828      4.72110363      7.93843168
H           3.71728404      5.35702662      8.66001799
H           3.88078409      4.32124191      7.18664002
C           2.00968114      5.48908862      7.28345601
H           1.16997396      5.64953147      7.99693345
C           2.50725199      6.82577975      6.69095791
H           3.43982726      6.70906707      6.10570695
H           1.73555377      7.28433865      6.04848472
O           1.40712332      4.73460835      6.23696150
H           2.11409568      4.31934513      5.64012528
O           2.69281240      3.53533968      8.59264667
H           2.16127964      3.77141743      9.38037655
O           2.88369744      7.70155193      7.75642114
H           2.09357291      8.12943735      8.14602908
          93
 Energy =     -0.97943348 a.u.  #Cluster:   20
C          -3.14069282      2.96763564     -0.55173356
C          -1.94182092      2.27496864     -0.34130287
C          -1.95606637      0.93841541      0.06905448
C          -3.17054009      0.26307123      0.28418084
C          -4.36167086      0.94680422      0.08227129
C          -4.35020800      2.30812692     -0.33727226
H          -3.14604936      4.01178538     -0.86481488
H          -0.99781223      2.80047784     -0.48970946
H          -3.14956473     -0.77961538      0.61093102
O          -5.50773503      3.00969821     -0.54788109
H          -6.30197829      2.44647593     -0.31873123
O          -5.64115095      0.44064708      0.21246691
C          -5.78933926     -0.77666202      0.98623712
H          -6.88121763     -0.87728393      1.03708454
H          -5.33892411     -1.61560606      0.44705824
H          -5.35302146     -0.65381723      1.98199571
C          -0.65135391      0.21533315      0.29471147
H          -0.05398448      0.71731746      1.10051538
C           0.18041838      0.11998837     -1.00741015
H           0.56421696      1.12504509     -1.32985251
C          -0.54549166     -0.59312910     -2.16026948
H           0.15922871     -1.20286225     -2.76355927
H          -1.37996497     -1.22626186     -1.80416151
O          -0.95659452     -1.11079333      0.75949184
H          -0.14674330     -1.67353032      0.66223374
O          -1.04223012      0.37646361     -3.09189474
H          -1.76081804      0.91534279     -2.68028454
O           1.28633586     -0.78419368     -0.73253796
C           2.43321237     -0.31313491     -0.12581047
C           2.74648610      1.00067514      0.26963070
C           3.38218613     -1.34045387      0.05225458
C           3.99313731      1.27931889      0.84790865
C           4.61700439     -1.04780825      0.62309457
H           3.12893897     -2.35064413     -0.26873339
C           4.92640924      0.26222771      1.01981490
H           4.22102229      2.31149563      1.14964488
H           5.34983222     -1.84341612      0.76075854
H           5.90250125      0.48721758      1.45276504
O           1.87442309      2.04753581     -0.02791259
C           1.44880646      2.85230644      1.11482118
H           1.33380126      3.85838384      0.68874950
H           0.50691564      2.42453099      1.47284559
H           2.20549713      2.88391221      1.90545523
C           6.57552427      3.48678358      1.45065443
H           6.33070865      3.47324231      2.54818235
H           5.68007809      3.11927499      0.89501712
C           6.99976492      4.89473977      1.02506103
H           6.31892968      5.63204753      1.53450161
H           8.03108771      5.10354825      1.37999580
C           7.38233214      6.54716839     -0.76739062
H           7.33958996      6.77893814     -1.84617803
H           6.72790290      7.27774597     -0.25187957
H           8.41505142      6.72400024     -0.42520858
C           5.52555019      4.95568054     -1.00928742
H           5.46768714      4.97397825     -2.10813499
H           5.07793839      3.98667922     -0.68292309
H           4.83174817      5.72622263     -0.60991999
C           7.85286907      4.16481622     -1.20290957
H           7.79585534      4.27853656     -2.29665259
H           8.90046155      4.29105848     -0.88860999
H           7.58341195      3.10961982     -0.95544953
N           6.93030111      5.12728572     -0.48772391
O           7.59953432      2.53532647      1.13984713
H           8.23281091      2.45422663      1.88120652
Cl          3.81675796      4.97217640      1.59832355
C           5.16015013      3.14879268      5.93999942
H           5.59282576      3.97896886      6.52438629
H           5.96461542      2.46214797      5.62603434
C           4.34360442      3.65840160      4.73662166
H           3.89519641      2.80399229      4.17983407
C           3.24497480      4.65832007      5.16225278
H           3.63419050      5.45180771      5.82445651
H           2.76096243      5.12428634      4.28530574
O           5.26272515      4.33608092      3.89595180
H           4.70951400      4.73411206      3.02962872
O           4.33077481      2.35330136      6.79495826
H           3.46395841      2.82903403      6.93934803
O           2.26987815      3.98321191      5.97993828
H           1.67564563      3.44496535      5.41783544
C           3.54510097      1.34566767     -3.16518000
H           3.07724357      0.66709943     -2.43073420
H           4.63843909      1.34907566     -3.01221678
C           2.95927561      2.77153175     -3.11585529
H           3.35210185      3.37887245     -3.96312584
C           1.41637505      2.77509364     -3.09362375
H           1.02893749      2.38182267     -2.12667308
H           1.01575134      3.78994633     -3.26985563
O           3.44583837      3.45184098     -1.95521904
H           2.97230104      3.11933744     -1.13482114
O           3.36640281      0.80860009     -4.47687214
H           2.40482765      0.94300409     -4.73687689
O           0.96510523      1.95702033     -4.18410893
H           0.23496918      1.34279996     -3.86706325
          93
 Energy =     -0.97910174 a.u.  #Cluster:   21
C          -3.54139097      1.21580502      1.86362605
C          -2.27115080      0.64115788      1.94136797
C          -2.11760673     -0.74229424      2.11329502
C          -3.23876941     -1.58186245      2.19379805
C          -4.50351677     -1.01230688      2.09351383
C          -4.66285717      0.38565468      1.94367243
H          -3.67346721      2.28943475      1.73546776
H          -1.38617276      1.28981520      1.84100007
H          -3.09818100     -2.65544290      2.32824639
O          -5.90387452      0.96292049      1.83283088
H          -6.61373976      0.27522147      1.97498970
O          -5.71102891     -1.71181705      2.02395806
C          -5.78166587     -2.94078476      2.79053731
H          -6.84600634     -3.19586742      2.72508673
H          -5.15795236     -3.70539119      2.31788633
H          -5.47771202     -2.76016336      3.82633212
C          -0.73284509     -1.33031325      2.19936506
H          -0.04861121     -0.67801095      2.80245492
C          -0.11742425     -1.57605143      0.79987144
H          -0.02832983     -0.62582538      0.22276487
C          -0.81183636     -2.67162999     -0.02529470
H          -0.07896138     -3.17199724     -0.68809417
H          -1.30578983     -3.42248838      0.62183486
O          -0.84536384     -2.58936226      2.89727499
H           0.02922557     -3.04467616      2.84796581
O          -1.84044395     -2.14044583     -0.84363010
H          -1.76323213     -1.06332490     -0.97818588
O           1.19521631     -2.17214755      1.05672558
C           2.32212657     -1.37478990      1.01943250
C           2.37750849      0.02249935      1.26760660
C           3.49882328     -2.08919512      0.77173031
C           3.60611853      0.68629856      1.23777891
C           4.72589314     -1.41617368      0.76367744
H           3.44161262     -3.16062489      0.58855906
C           4.77673329     -0.03989159      0.98739071
H           3.66047673      1.75746193      1.41726031
H           5.64085521     -1.97464330      0.57637559
H           5.73397672      0.47875743      0.96991574
O           1.16782347      0.61279209      1.56373275
C           1.07419737      2.05693053      1.47817348
H           1.36407568      2.40571095      0.48316508
H          -0.01887183      2.20470268      1.61683520
H           1.65311765      2.52318086      2.27559448
C          -4.68574741     -1.00081851     -1.20987287
H          -3.75378634     -1.38649388     -0.73590604
H          -4.87372437      0.02718581     -0.84003525
C          -4.67818433     -1.02744611     -2.73754991
H          -5.74261495     -1.01916452     -3.07500963
H          -4.19320456     -0.09037611     -3.11265387
C          -4.68171457     -2.60879032     -4.63986017
H          -4.18003354     -3.47193134     -5.13253708
H          -5.72700004     -2.90051192     -4.44730116
H          -4.67524983     -1.77454004     -5.35941187
C          -3.99621550     -3.43093202     -2.42889807
H          -3.63627831     -4.34527071     -2.93115576
H          -3.32755467     -3.24894917     -1.54406946
H          -5.01228014     -3.59345402     -2.02034220
C          -2.52932877     -1.90200872     -3.68929925
H          -2.09643488     -2.62421728     -4.40433749
H          -2.42253146     -0.88092541     -4.09259735
H          -1.88988853     -1.92704553     -2.76418080
N          -3.96418808     -2.23854764     -3.35649776
O          -5.79320093     -1.85457554     -0.84172122
H          -5.86266194     -1.89889755      0.14953002
Cl         -2.04690213      0.52502352     -1.64468316
C          -1.70730694     -5.39981245     -4.25420056
H          -0.67415008     -5.02774056     -4.12802468
H          -2.27835470     -5.23320073     -3.31491170
C          -1.74774948     -6.87668631     -4.68719541
H          -2.79126708     -7.19710276     -4.90251382
C          -0.83417628     -7.15640999     -5.89910705
H           0.20523081     -6.83416392     -5.71571145
H          -0.84691058     -8.22237832     -6.18630375
O          -1.21408271     -7.59329461     -3.56772148
H          -1.54702021     -8.51381612     -3.55109036
O          -2.38169236     -4.59135442     -5.22771743
H          -2.12036517     -4.90167946     -6.14539656
O          -1.41537725     -6.39223783     -6.98022383
H          -0.75024814     -6.25033327     -7.68612818
C          -1.99449106      4.75958843      0.74581169
H          -1.26561587      4.42765607      1.51251224
H          -2.94364713      5.04517069      1.23437488
C          -2.19617634      3.64168412     -0.29795838
H          -3.15903575      3.10488286     -0.14153805
C          -2.06274504      4.11918761     -1.75679054
H          -2.29474541      3.30726137     -2.47045693
H          -2.65870834      5.01932669     -1.98096652
O          -1.11304586      2.73065699     -0.06868139
H          -1.32012547      1.82159217     -0.55977261
O          -1.52168437      5.99251326      0.19751256
H          -0.87465955      5.80906527     -0.54389619
O          -0.69679157      4.53492762     -1.96476070
H          -0.11252109      3.80554596     -1.61093642
          93
 Energy =     -0.97840390 a.u.  #Cluster:   22
C          -2.69091509      3.63864722      0.36701259
C          -1.84785796      2.76960246      1.06764744
C          -2.20556175      1.43093148      1.25945633
C          -3.43423585      0.93534877      0.79217678
C          -4.27585184      1.79429137      0.09323390
C          -3.88483672      3.13837608     -0.14572171
H          -2.41110748      4.67746874      0.19438895
H          -0.89180372      3.13979536      1.43907991
H          -3.69840765     -0.10997322      0.97140951
O          -4.64736840      3.97968047     -0.93421467
H          -5.49003361      3.50839964     -1.21008015
O          -5.52649833      1.50808463     -0.41765536
C          -5.79126701      0.12065861     -0.75383583
H          -6.77668077      0.18292548     -1.22636468
H          -5.02678052     -0.25966701     -1.44350302
H          -5.82944894     -0.48463667      0.16460894
C          -1.20841655      0.50201580      1.90826126
H          -0.41576357      1.06157975      2.46622880
C          -0.53011512     -0.37337433      0.82239164
H          -0.67700494      0.05464618     -0.19721717
C          -0.93849848     -1.85119421      0.81666057
H          -0.09113814     -2.48657846      1.13136561
H          -1.82757558     -2.03681729      1.45469969
O          -1.93638227     -0.32953503      2.83514585
H          -1.36184465     -0.54966112      3.59461634
O          -1.23117344     -2.20520484     -0.53460311
H          -2.30673119     -2.17949867     -0.68293483
O           0.89303213     -0.35559983      1.18007687
C           1.69852278      0.24777781      0.22494614
C           2.07656900      1.60880485      0.38860077
C           2.18252264     -0.49814561     -0.84696842
C           2.96565513      2.19194375     -0.51916666
C           3.06995093      0.09722269     -1.75448703
H           1.86049354     -1.53478138     -0.96901001
C           3.45941917      1.42489513     -1.58369799
H           3.28768950      3.22322046     -0.40684562
H           3.45037243     -0.48426978     -2.59283509
H           4.15579558      1.88218373     -2.28692185
O           1.49031367      2.23959017      1.46035156
C           1.70812581      3.67025800      1.58024360
H           1.28899458      4.18623531      0.70536088
H           1.14409056      3.90701997      2.49129908
H           2.77032433      3.88666886      1.71517526
C          -0.63134652     -5.41177398     -0.22298406
H          -0.31521387     -5.08009850      0.78468914
H          -0.14641050     -6.37602598     -0.46713376
C          -2.16890317     -5.48902571     -0.35764031
H          -2.52539237     -4.50375911     -0.78727886
H          -2.45178300     -6.24212026     -1.12159308
C          -4.39505059     -5.78653256      0.65558097
H          -5.00255531     -5.87651105      1.58045452
H          -4.72501637     -4.83540176      0.16665398
H          -4.67072012     -6.60922198     -0.01935453
C          -2.60787132     -4.68628127      1.96082582
H          -3.25592715     -4.76851039      2.86913837
H          -1.55719594     -4.70990486      2.28727703
H          -2.80035410     -3.66584004      1.54497213
C          -2.50384613     -7.10288318      1.50772277
H          -3.07397754     -7.33924988      2.42440349
H          -2.68341765     -7.91484866      0.78290850
H          -1.43318232     -7.12409734      1.77500173
N          -2.91135431     -5.75733466      0.94388546
O          -0.14519448     -4.52369868     -1.20096273
H          -0.49760294     -3.55998046     -1.01844130
Cl         -4.00950510     -2.49684276     -0.35139566
C          -1.35900244      2.36300834     -2.73980074
H          -2.07556400      2.23356182     -1.90857907
H          -0.66557943      1.50221363     -2.76141100
C          -0.61341296      3.70955273     -2.65985981
H           0.06389563      3.82467255     -3.53525086
C          -1.54472248      4.93313217     -2.51747347
H          -1.63509166      5.23095120     -1.45470691
H          -1.17561671      5.78860971     -3.11148288
O           0.19036275      3.76409828     -1.46240880
H           0.79061207      2.98805729     -1.42150661
O          -2.04627957      2.28707342     -3.98939172
H          -2.64956184      3.08452240     -4.05952904
O          -2.83657210      4.65574182     -3.07710710
H          -3.48224121      4.41378669     -2.35349429
C          -5.20972640     -3.05753156      3.83091991
H          -5.91908986     -2.76187932      4.62164978
H          -4.32253938     -2.39741614      3.87071911
C          -5.84957465     -3.06840077      2.43045313
H          -5.12305301     -3.45427160      1.67960665
C          -7.15348748     -3.88781816      2.37358492
H          -7.88700131     -3.56078613      3.12797358
H          -7.60514594     -3.84805308      1.36625001
O          -6.23593092     -1.73095990      2.12243651
H          -5.68787998     -1.39221158      1.34551662
O          -4.69803781     -4.37226272      4.12365841
H          -5.42049017     -5.03567639      3.95046035
O          -6.75322473     -5.26039767      2.64077619
H          -7.54083186     -5.80101729      2.84553973
          93
 Energy =     -0.97807823 a.u.  #Cluster:   23
C          -3.25476734      2.16902631      1.55218303
C          -1.94937748      1.68017970      1.50410956
C          -1.68645098      0.30907866      1.65569533
C          -2.73727628     -0.59974898      1.84432579
C          -4.04058480     -0.11732929      1.90608668
C          -4.30591730      1.26628234      1.76009428
H          -3.47330865      3.23023616      1.43385668
H          -1.11514119      2.37781043      1.35184618
H          -2.52502579     -1.66404401      1.95929617
O          -5.57895297      1.75958394      1.82907262
H          -6.22315803      1.00792885      2.00282902
O          -5.14688696     -0.90676663      2.20816704
C          -5.41686554     -1.96087822      1.24613358
H          -6.33847205     -2.40405874      1.64297555
H          -5.57534063     -1.53534465      0.25098993
H          -4.59958280     -2.68629910      1.24140199
C          -0.26003362     -0.16788528      1.65875986
H           0.40947943      0.57665232      2.17019176
C           0.30157615     -0.46904206      0.25062970
H           0.41348221      0.46107215     -0.35384060
C          -0.46900418     -1.55636273     -0.52077954
H           0.18401436     -2.04397890     -1.27298736
H          -0.89218534     -2.31822063      0.15652394
O          -0.21792430     -1.38238949      2.44562486
H           0.74689880     -1.61329047      2.56738251
O          -1.50392739     -0.96394811     -1.30797257
H          -2.16413850     -0.52302690     -0.73096146
O           1.59204431     -1.11161942      0.44606547
C           2.71824522     -0.35611218      0.71483936
C           2.81529812      1.03973469      0.91031315
C           3.87026740     -1.15729772      0.78786406
C           4.06125521      1.62001641      1.17654842
C           5.10323181     -0.56736397      1.06538969
H           3.77569532     -2.23147528      0.63797746
C           5.19982906      0.81543203      1.25423204
H           4.13803395      2.69470157      1.32713131
H           5.99336190     -1.19152254      1.13810548
H           6.16607114      1.26894674      1.46965221
O           1.65224717      1.79073676      0.78287678
C           1.50871626      2.88289528      1.73332750
H           2.13083481      3.72270772      1.41686019
H           0.43810044      3.11893519      1.64742410
H           1.76073013      2.54620446      2.74930465
C          -1.45747600     -1.15782888      7.99968633
H          -1.36213710     -1.69358759      8.96941528
H          -0.48007486     -0.67005720      7.75097121
C          -1.95471506     -2.12164601      6.91275147
H          -1.72780647     -3.17634763      7.21801306
H          -3.06561175     -2.03452803      6.85592105
C          -2.14341009     -2.66723825      4.51173460
H          -1.73273183     -2.48669539      3.48703902
H          -2.09350556     -3.74903544      4.70686604
H          -3.20216266     -2.35956188      4.49087945
C           0.08159445     -2.35879728      5.50751084
H           0.52050448     -2.25937642      4.49468811
H           0.72737955     -1.70975599      6.16283171
H           0.17663778     -3.40181480      5.85444001
C          -1.40407822     -0.41652109      5.16333587
H          -0.73454690      0.19164030      5.81126698
H          -1.00046782     -0.26379582      4.13102458
H          -2.42487016     -0.01743524      5.19883222
N          -1.34844590     -1.87897540      5.53273910
O          -2.46097949     -0.17528417      8.25608452
H          -2.33045007      0.60769011      7.67995269
Cl          1.66663529      0.26810814      4.37094649
C           2.11754116     -5.24848810      8.07815096
H           2.61452804     -4.55180791      7.37765828
H           2.01588711     -6.23707228      7.59790695
C           0.77115540     -4.70093655      8.59293215
H           0.38248997     -5.33393778      9.42189506
C           0.87200097     -3.22994215      9.02742217
H           1.21865463     -2.57838164      8.19768739
H          -0.09558454     -2.85978951      9.42113302
O          -0.19658945     -4.68608107      7.51448127
H          -0.46374384     -5.60225264      7.30133097
O           2.96935399     -5.48509928      9.19797782
H           2.96347787     -4.66267838      9.77698109
O           1.82293848     -3.20554272     10.10384622
H           2.28729998     -2.30546984     10.11725170
C           3.58978990      0.39049388      7.30524936
H           3.52613863      1.48719928      7.40201426
H           3.78693139      0.13587294      6.24280859
C           2.33857861     -0.32743254      7.84570501
H           2.52923658     -1.43341509      7.87724681
C           1.96129017      0.16153311      9.26487864
H           2.16763266      1.23174548      9.42073565
H           0.90502765     -0.04915437      9.49885152
O           1.20778443     -0.10285579      7.05136583
H           1.48768234      0.16858169      5.91355507
O           4.76091101     -0.06510050      7.99694709
H           4.54341603     -0.22681626      8.94641415
O           2.80989304     -0.62280513     10.14659122
H           2.75746318     -0.28473939     11.06392958
          93
 Energy =     -0.97781393 a.u.  #Cluster:   24
C          -3.15035529      3.10289615      0.16783805
C          -2.09760271      2.20095866      0.11617665
C          -2.31367429      0.85173840     -0.21591297
C          -3.61195558      0.39331111     -0.47322286
C          -4.67118464      1.29338621     -0.41485458
C          -4.47257217      2.66575064     -0.08223217
H          -2.98465429      4.14982211      0.42170392
H          -1.08270143      2.54685375      0.33131406
H          -3.78727015     -0.65697449     -0.71953550
O          -5.46256487      3.52487413     -0.08590274
H          -6.76293812      3.08815620      0.30597801
O          -5.96636868      0.89024483     -0.75100067
C          -6.66197979      0.21769341      0.33747102
H          -7.70602672      0.23755578      0.00846438
H          -6.27472949     -0.79973051      0.42676700
H          -6.54676871      0.77354329      1.27377757
C          -1.13914529     -0.08839824     -0.26462167
H          -0.69836554     -0.23676202      0.75477644
C          -0.04443355      0.42012074     -1.23804418
H           0.26490422      1.46169888     -0.99546247
C          -0.43869336      0.29506933     -2.72037514
H           0.45173368      0.29573649     -3.37588149
H          -1.05179240     -0.60684568     -2.90748717
O          -1.62566794     -1.36827004     -0.71777779
H          -0.86245195     -1.98814326     -0.77534289
O          -1.16415578      1.46223341     -3.12245303
H          -1.99802450      1.53113099     -2.60222793
O           1.08617377     -0.49437681     -1.10750573
C           2.16493068     -0.10105610     -0.33700001
C           2.11611616      0.70220429      0.83453507
C           3.38276772     -0.64187731     -0.76230765
C           3.28438919      0.94545954      1.55970768
C           4.54515318     -0.39980006     -0.02096088
H           3.40572119     -1.25330152     -1.66383121
C           4.49523967      0.38900605      1.12838134
H           3.26590418      1.55930468      2.45670669
H           5.49002649     -0.82918423     -0.34994731
H           5.40295916      0.57837446      1.69976709
O           0.86936068      1.20451328      1.15453797
C           0.71722466      1.87229332      2.43344542
H           1.27921293      2.81006398      2.43643931
H          -0.36797573      2.05777195      2.45904010
H           1.01768885      1.21122443      3.25059062
C          -7.29022264      1.54721032     -3.29406725
H          -6.36428931      1.25201207     -3.82716720
H          -7.56980674      0.72563114     -2.60178916
C          -7.15701449      2.85227947     -2.51356604
H          -8.15955271      3.24291388     -2.22567250
H          -6.63833921      2.62387963     -1.51837712
C          -6.30706163      5.16563029     -2.33264674
H          -5.75588005      5.99308984     -2.80253976
H          -7.31227013      5.52338332     -2.05544310
H          -5.78980887      4.92083535     -1.36182884
C          -7.04484578      4.30726085     -4.52022029
H          -6.47184420      5.04637642     -5.10695467
H          -7.18419738      3.40706907     -5.16823383
H          -8.05273801      4.71771609     -4.34102382
C          -4.95386200      3.47237353     -3.49406525
H          -4.35308809      4.24639987     -3.99863579
H          -4.43824990      3.21753416     -2.54139801
H          -4.94261143      2.56571998     -4.12556241
N          -6.36588673      3.94361444     -3.22281875
O          -8.25464209      1.67321055     -4.34760593
H          -9.16550588      1.61144983     -3.99305028
Cl         -8.13113424      3.10077822      0.59324291
C          -8.08035778      6.44905581     -8.23993606
H          -9.12953155      6.19248176     -7.99688284
H          -8.03568020      7.47601115     -8.64807640
C          -7.48513697      5.40909218     -9.21625715
H          -6.76362368      5.88086261     -9.92075579
C          -6.83013332      4.19407499     -8.53445384
H          -6.89282375      3.30306764     -9.18924884
H          -5.77831450      4.40061624     -8.25855153
O          -8.56833734      4.83440863     -9.97334356
H          -8.91922489      5.47214900    -10.62583959
O          -7.32030032      6.54146874     -7.03601096
H          -7.31964047      5.65057682     -6.58767988
O          -7.44579718      3.89226133     -7.26905570
H          -8.35785030      3.54442627     -7.41960681
C          -3.73979630      5.89002439      3.48447255
H          -4.19634392      6.85044763      3.77668367
H          -2.80620344      6.08147201      2.92606924
C          -4.70466879      5.00303926      2.67638359
H          -4.27454121      3.98296112      2.54233742
C          -6.11014969      4.91053364      3.30620979
H          -6.60802976      5.89070067      3.33994042
H          -6.75087327      4.18892159      2.76301884
O          -4.84568469      5.65022918      1.41076554
H          -5.13007984      4.96010675      0.71613636
O          -3.31796156      5.19511436      4.66441620
H          -4.11611240      4.75145944      5.06988158
O          -5.92126932      4.38184167      4.64149335
H          -6.54257126      4.81166805      5.25857124
          93
 Energy =     -0.97781078 a.u.  #Cluster:   25
C          -3.45080814      4.23521912      0.99384555
C          -2.30353974      3.44055284      1.07566108
C          -2.37727393      2.05199098      0.88104633
C          -3.60286961      1.44476219      0.58935891
C          -4.75861905      2.21885718      0.54278605
C          -4.67336391      3.62443226      0.73389863
H          -3.40832704      5.31274971      1.15656890
H          -1.34820732      3.91023990      1.31412345
H          -3.65123302      0.36338251      0.38449269
O          -5.79613218      4.42351092      0.58987059
H          -6.61236853      3.90169064      0.84426245
O          -6.04027352      1.77595825      0.31481541
C          -6.26144344      0.33766768      0.45466244
H          -7.35052287      0.28139448      0.52468856
H          -5.88913210     -0.17163590     -0.44627530
H          -5.77019343     -0.04690054      1.36094196
C          -1.13004405      1.22319553      1.05009338
H          -0.30339096      1.82872857      1.51500767
C          -0.58805359      0.53940304     -0.22613433
H          -0.11252459      1.27545078     -0.91428971
C          -1.54939063     -0.36946874     -1.00502621
H          -1.06981447     -1.34921141     -1.21447021
H          -2.50770755     -0.54316939     -0.47776011
O          -1.43897166      0.20423189      2.04062358
H          -0.83710178     -0.58078244      1.88268489
O          -1.77783896      0.27931816     -2.25189444
H          -2.85750688      0.25406997     -2.45331160
O           0.38700608     -0.41664533      0.30491687
C           1.72814294     -0.08817827      0.33638534
C           2.28031994      1.21874157      0.41183669
C           2.57045326     -1.20321688      0.36093568
C           3.65833448      1.39125224      0.52005206
C           3.95394504     -1.01942914      0.47463017
H           2.13396409     -2.19945755      0.28255147
C           4.49500740      0.26317201      0.55390212
H           4.09915917      2.38054719      0.57779518
H           4.60816861     -1.88858569      0.49206376
H           5.57028581      0.40047318      0.64467083
O           1.35547196      2.25164556      0.35327965
C           1.85870262      3.60435757      0.46492092
H           2.53316310      3.82824435     -0.36571038
H           0.93855817      4.19743589      0.39378643
H           2.34661269      3.74805926      1.43339485
C          -5.55757284      5.97953073     -2.21983794
H          -6.56582174      6.43609831     -2.19428341
H          -5.39521776      5.43582075     -1.26830888
C          -5.36094465      5.11960866     -3.48232303
H          -6.26279179      5.20212424     -4.12737995
H          -4.52917379      5.55730359     -4.08453905
C          -5.02617948      2.88879923     -4.51329683
H          -4.82071930      1.79954568     -4.32693471
H          -5.98112514      2.92605060     -5.05709721
H          -4.22277691      3.24839707     -5.17378844
C          -6.19120003      3.07670057     -2.35920966
H          -6.00316458      1.99900840     -2.10524823
H          -6.27632859      3.58558293     -1.38073828
H          -7.16433103      3.11920398     -2.86806128
C          -3.74642654      3.50500107     -2.51106645
H          -3.54814303      2.44046778     -2.22356605
H          -2.91190554      3.81570585     -3.15940507
H          -3.70237604      4.08622414     -1.57677907
N          -5.08103367      3.64535182     -3.20410550
O          -4.69236289      7.11256332     -2.30548074
H          -3.81771298      6.91571500     -1.91897931
Cl         -4.53985372      0.11581526     -2.61597403
C          -1.15577255     -2.64974507     -5.94538414
H          -1.72945148     -3.38962555     -5.36493256
H          -0.10137448     -2.97385952     -6.01101572
C          -1.26995262     -1.23020924     -5.35345625
H          -0.77178712     -0.49201005     -6.01708200
C          -2.73055607     -0.81813407     -5.07819908
H          -3.21689557     -1.48987816     -4.34960656
H          -2.79401244      0.22229602     -4.71941927
O          -0.53770790     -1.28442617     -4.13093617
H          -0.90695939     -0.63366551     -3.44824817
O          -1.62038989     -2.65578058     -7.29918554
H          -2.42935240     -2.07671165     -7.36410019
O          -3.43768571     -0.86508460     -6.34064129
H          -4.32241482     -1.25642051     -6.19221198
C          -4.46643002      0.53594224      3.76410791
H          -4.56176720      1.50316742      3.24257021
H          -5.46988927      0.20957960      4.09892885
C          -3.47989950      0.59459116      4.94522749
H          -2.92540002     -0.36838001      5.03969273
C          -2.48870422      1.77243208      4.88997567
H          -2.78679626      2.55105104      4.17056647
H          -2.36899677      2.22275813      5.89737319
O          -4.24496825      0.83540798      6.14117054
H          -4.59656866     -0.00520592      6.49142338
O          -4.08043417     -0.47158187      2.82712014
H          -3.16773365     -0.27254784      2.46648227
O          -1.18228059      1.29775811      4.57609710
H          -1.16559946      0.92294401      3.65176230
          93
 Energy =     -0.97775218 a.u.  #Cluster:   26
C          -3.00019262      2.21668500     -0.66770446
C          -1.70875686      1.79068522     -0.33019128
C          -1.52097352      0.63284894      0.42902806
C          -2.61885943     -0.12513940      0.87515181
C          -3.90128183      0.30084465      0.55643744
C          -4.09520182      1.47560026     -0.22651879
H          -3.16364777      3.11225457     -1.26432951
H          -0.85445596      2.37397642     -0.66997937
H          -2.43777878     -1.02346822      1.47039655
O          -5.34510306      1.92456701     -0.56943337
H          -6.04898386      1.30835179     -0.21894486
O          -5.09256436     -0.28999552      0.92845337
C          -5.00898390     -1.53615363      1.66687679
H          -6.06875773     -1.77253628      1.82562390
H          -4.51569967     -2.30106668      1.06012518
H          -4.49504491     -1.37644320      2.62154479
C          -0.12437180      0.21950467      0.81017485
H           0.39814706      1.05660735      1.35606997
C           0.76091764     -0.23984342     -0.37341580
H           1.31412114      0.61537488     -0.81459260
C           0.05785351     -1.05739396     -1.47426927
H          -0.28430929     -2.03590546     -1.09122164
H          -0.79589667     -0.49228584     -1.89570298
O          -0.22920032     -0.85105104      1.78659700
H           0.49185894     -1.53032264      1.60009963
O           0.97254699     -1.23181200     -2.53919373
H           1.51293054     -2.17916808     -2.40922290
O           1.67931936     -1.20578160      0.22711865
C           2.98550462     -0.83242240      0.48587847
C           3.43558918      0.46048609      0.85853301
C           3.88847076     -1.89749700      0.39716362
C           4.78645512      0.66071945      1.15481757
C           5.23540440     -1.68463728      0.70168438
H           3.51806133     -2.88080304      0.07710353
C           5.67829524     -0.41598244      1.07938602
H           5.14859926      1.63905240      1.45874911
H           5.93431050     -2.51901878      0.64544240
H           6.72756082     -0.25589401      1.32417470
O           2.47517910      1.45491504      0.83986241
C           2.82064705      2.73643728      1.42644907
H           3.68801624      3.17170889      0.92852179
H           1.91467158      3.32569299      1.23215114
H           2.97526479      2.62175189      2.50968918
C           5.26933895     -2.50378367     -4.88858397
H           5.53364518     -3.55216652     -4.64577858
H           4.52670059     -2.50915347     -5.71130196
C           4.78734238     -1.78582435     -3.64685965
H           3.95194982     -2.53010899     -3.10379720
H           5.57814983     -1.69855197     -2.88366213
C           3.63684373      0.08686304     -2.55184721
H           3.28710510      1.12524876     -2.62513525
H           2.75389133     -0.52458493     -2.19096142
H           4.40925339      0.02488629     -1.76933426
C           2.92834002     -0.59980365     -4.79619423
H           2.39894685      0.35519601     -4.93561106
H           3.21810588     -0.99740731     -5.78117891
H           2.18065485     -1.30638781     -4.35053083
C           5.10115361      0.53566597     -4.47960259
H           4.61376789      1.48020371     -4.75988286
H           5.91749326      0.76294612     -3.77529492
H           5.58111861      0.10470754     -5.38783776
N           4.12256485     -0.45108967     -3.87820985
O           6.40229724     -1.84745508     -5.48984613
H           7.21297468     -2.01200304     -4.97168009
Cl          2.67843574     -3.44526974     -2.45160349
C           0.11563878      3.15132933      5.95620089
H          -0.92710384      3.29969132      5.62418924
H           0.53387622      4.13157151      6.25337002
C           0.99369837      2.45965541      4.89207287
H           1.70428468      1.74847743      5.38416239
C           0.19905497      1.73787774      3.79731299
H          -0.88083406      1.96958224      3.80452089
H           0.61540854      1.94557906      2.78681660
O           1.76147468      3.44839153      4.16932594
H           2.32425178      3.95520668      4.78878900
O           0.13795734      2.39134913      7.15920230
H          -0.31898233      1.50140613      7.01311859
O           0.36841568      0.33517830      4.08819864
H           0.10072358     -0.21911495      3.26692296
C          -2.13552750     -2.66278080      6.93143202
H          -2.35117770     -2.49695994      8.00265657
H          -2.50610955     -3.65952556      6.63627932
C          -0.63673391     -2.47639085      6.61567716
H          -0.44412428     -2.60678640      5.52779846
C          -0.10909902     -1.11487358      7.11053026
H          -0.35295309     -0.93112376      8.17318543
H           0.98080202     -1.02442954      6.96095627
O           0.12903952     -3.43169493      7.36670497
H           0.04661426     -4.32149018      6.97123149
O          -2.91427382     -1.75327858      6.15061378
H          -2.48603180     -0.84707704      6.19163165
O          -0.80007408     -0.07799498      6.39619403
H          -0.44479300     -0.02598160      5.42927151
          93
 Energy =     -0.97563193 a.u.  #Cluster:   27
C          -3.03807499      1.32731159     -2.57780391
C          -1.83155571      1.29920320     -1.87417961
C          -1.71388531      0.53771379     -0.70655255
C          -2.82052557     -0.16966241     -0.21042856
C          -4.02024949     -0.15420942     -0.91035559
C          -4.13923011      0.59313940     -2.11731371
H          -3.14622880      1.91348953     -3.49130475
H          -0.98343996      1.87438130     -2.24784125
H          -2.72146636     -0.71170529      0.73663520
O          -5.27179712      0.67496237     -2.86210479
H          -5.88295657     -0.15023313     -2.73308322
O          -5.16983582     -0.83429578     -0.51342095
C          -5.07293253     -1.61600389      0.70919245
H          -6.08310013     -2.03229264      0.80080278
H          -4.31521998     -2.39974416      0.60296867
H          -4.84509236     -0.95659029      1.55491037
C          -0.38899288      0.45648273     -0.00009627
H           0.16420348      1.42870002     -0.04112633
C           0.51502527     -0.68774957     -0.53579952
H           1.12564550     -0.33771658     -1.39689343
C          -0.18309306     -2.01026431     -0.89259599
H           0.53526636     -2.85222262     -0.83515494
H          -1.05670910     -2.22494954     -0.24747490
O          -0.64295979      0.21173007      1.40652629
H           0.26120914      0.22694494      1.86730650
O          -0.56958310     -1.99390500     -2.26732499
H          -1.32343865     -1.37575558     -2.40355573
O           1.36520749     -1.04627727      0.60001565
C           2.65366276     -0.51015907      0.54472461
C           2.94559391      0.65746384      1.28571883
C           3.65394796     -1.17964335     -0.16425932
C           4.26439815      1.12369383      1.35883984
C           4.96148121     -0.69420266     -0.10643590
H           3.40599669     -2.07122213     -0.73704048
C           5.26053224      0.44395716      0.65487231
H           4.52666842      1.97722486      1.99234609
H           5.75406807     -1.21333825     -0.64227590
H           6.28989788      0.80199065      0.71710160
O           1.84425046      1.26647747      1.85006935
C           2.07812750      2.19165351      2.94992444
H           2.50732295      3.11588087      2.55491906
H           1.06571308      2.34670079      3.33532685
H           2.74582258      1.74344360      3.70418780
C           5.40026276     -2.07185289      3.06667474
H           4.69356483     -1.43931356      2.48546610
H           6.34455709     -1.50419774      3.17556287
C           4.85478960     -2.49649087      4.43367643
H           5.36735979     -3.41735006      4.77941658
H           5.08794633     -1.67231740      5.17062342
C           2.93917378     -3.21869389      5.81165509
H           1.83175655     -3.31725730      5.88383516
H           3.37867121     -4.19793317      6.04842126
H           3.24804467     -2.49747998      6.58970288
C           2.98044639     -3.78497226      3.40847922
H           1.89095226     -3.99761334      3.41021314
H           3.25837813     -3.45334929      2.38482079
H           3.52152850     -4.72768579      3.57949661
C           2.58957198     -1.46186043      4.13869706
H           1.50332736     -1.63606895      4.10899174
H           2.81254613     -0.67430692      4.89528681
H           2.91573855     -1.01380189      3.17602175
N           3.34398837     -2.73566535      4.43341105
O           5.58440578     -3.23673623      2.24382365
H           6.46777649     -3.62380807      2.37806307
Cl          4.89890465      0.57243262      4.27404880
C          -8.19781726     -0.50135392     -1.23889269
H          -8.17001034      0.49589546     -1.71310701
H          -7.49589469     -0.50140399     -0.38124569
C          -7.90460853     -1.64117969     -2.23172588
H          -8.16147772     -2.62440921     -1.77647801
C          -8.60261882     -1.45494235     -3.59396333
H          -8.01576117     -0.80163386     -4.26325379
H          -8.77970409     -2.42720196     -4.09280186
O          -6.50191352     -1.65205655     -2.57196522
H          -5.94316776     -1.86638111     -1.76758020
O          -9.48168447     -0.72294365     -0.65331310
H         -10.14666435     -0.83535523     -1.38985612
O          -9.91941182     -0.92352865     -3.36493344
H          -9.94339016      0.03169652     -3.58842839
C          -0.89645647     -2.80598378      4.05756539
H          -1.89463423     -3.17724797      4.34677054
H          -0.78815216     -1.76284144      4.40561863
C          -0.65258528     -2.93907966      2.54020593
H           0.35327805     -2.54845681      2.25206684
C          -0.84011884     -4.38198198      2.03352137
H          -1.84363134     -4.77336087      2.26846584
H          -0.65180196     -4.45487973      0.94729024
O          -1.67703035     -2.19713795      1.88300369
H          -1.31776461     -1.24545840      1.66549485
O           0.10502712     -3.53208059      4.78553373
H           0.17187943     -4.45415236      4.40432174
O           0.16571733     -5.16561032      2.72547522
H          -0.00339885     -6.11926314      2.59162798
          93
 Energy =     -0.97546989 a.u.  #Cluster:   28
C          -3.09679514      2.64181276     -0.23897828
C          -2.02508974      2.24101452      0.57111586
C          -2.10746479      1.08027412      1.34309955
C          -3.27453375      0.30052171      1.31891552
C          -4.34252350      0.68602486      0.52274035
C          -4.25538965      1.86648875     -0.26680342
H          -3.04031880      3.54224439     -0.84654568
H          -1.11872293      2.85176623      0.59356155
H          -3.34808555     -0.59122378      1.95151303
O          -5.29225939      2.28673763     -1.06380092
H          -6.04264619      1.62774023     -1.02125607
O          -5.55805998      0.03549117      0.43422386
C          -5.57913525     -1.35060159      0.87584838
H          -6.64259309     -1.59797053      0.79017561
H          -4.96180869     -1.95772897      0.20724971
H          -5.22968998     -1.43927154      1.91363652
C          -0.95024466      0.66102591      2.23151356
H          -0.46913188      1.55682914      2.70605972
C           0.12322220     -0.08293661      1.39623578
H           0.32871456      0.47588759      0.45427035
C          -0.15645374     -1.56172709      1.08914721
H           0.78335523     -2.10527054      0.87664387
H          -0.70197324     -2.07599946      1.90264514
O          -1.38067480     -0.09527948      3.33447286
H          -1.95773587     -0.99231255      3.08568717
O          -0.88494512     -1.64218837     -0.13780253
H          -1.83111525     -1.41774719      0.02004279
O           1.33449889     -0.11373397      2.24271014
C           2.48580722      0.41543319      1.68703274
C           2.55538395      1.73615010      1.16212842
C           3.63262594     -0.37333518      1.76010895
C           3.77473695      2.24648301      0.71744062
C           4.85616510      0.15272820      1.32293234
H           3.56142973     -1.38884423      2.14640397
C           4.92279791      1.44565529      0.80518708
H           3.84821241      3.25194460      0.31286205
H           5.75375452     -0.46048592      1.37913879
H           5.87618222      1.84493340      0.45923508
O           1.34891312      2.39686488      1.16244914
C           1.26657001      3.66855221      0.47284500
H           1.60132687      3.57218624     -0.56350682
H           0.17697292      3.85706238      0.52133042
H           1.82833105      4.42944235      1.01913074
C          -0.99074734     -3.45822959      7.29950103
H          -1.48395933     -4.39465976      7.63479377
H          -0.29356920     -3.69695142      6.47473319
C          -2.05000492     -2.42470510      6.90402830
H          -2.65870411     -2.85671945      6.05476438
H          -2.75648242     -2.25143499      7.75715042
C          -2.63177153     -0.27105425      5.84073810
H          -2.23714685      0.52340698      5.16190256
H          -3.26705920     -0.89318612      5.16791443
H          -3.27589715      0.17812543      6.60601846
C          -0.40913344     -1.28912276      5.43357594
H          -0.08154132     -0.31880420      4.98159500
H           0.47521577     -1.78873050      5.85469451
H          -0.76485637     -1.88723900      4.56262422
C          -0.94703616     -0.29681006      7.61692379
H          -0.65610584      0.72336761      7.30774609
H          -1.69198660     -0.20698885      8.43670786
H          -0.05160454     -0.78808847      8.04296191
N          -1.50088923     -1.07794094      6.44452295
O          -0.23972910     -3.04933013      8.45849957
H           0.52704851     -2.46975760      8.18085656
Cl         -2.83535124     -2.51092687      3.38519543
C          -4.02733228     -1.31601648     11.22215694
H          -4.82939338     -1.39565751     10.46746927
H          -3.67597741     -0.26809350     11.27835383
C          -2.86269347     -2.28445239     10.93753389
H          -2.13778473     -2.28878488     11.78309535
C          -3.34516872     -3.71790166     10.62800018
H          -4.07362305     -3.74026775      9.80105748
H          -2.49875792     -4.39132714     10.40102014
O          -2.23500543     -1.76129672      9.76253142
H          -1.38749386     -2.26011838      9.54563426
O          -4.57057779     -1.57853651     12.51591275
H          -4.65525696     -2.56482329     12.63940834
O          -3.95963733     -4.17436087     11.85165221
H          -4.59667934     -4.89255860     11.65953025
C           3.69063818      0.06075483      7.72481371
H           4.67522257     -0.10420509      7.25324721
H           3.66289241     -0.45625604      8.70584900
C           2.50567464     -0.35328195      6.83715119
H           1.58724816      0.21363876      7.14637938
C           2.73819499     -0.14346092      5.32800265
H           3.71687608      0.31433212      5.09573348
H           2.63055688     -1.08436840      4.75831368
O           2.13197854     -1.72416548      7.08298225
H           2.91381418     -2.31048637      7.12283616
O           3.55449896      1.43692289      8.08139885
H           3.50379031      1.99515038      7.26984895
O           1.72674786      0.79990379      4.94535117
H           1.41648202      0.61724800      4.00461989
          93
 Energy =     -0.97496760 a.u.  #Cluster:   29
C          -3.93902127      0.86583054      1.06411825
C          -2.79772013      0.12899477      0.73176912
C          -2.90011947     -1.10275106      0.06817052
C          -4.15989940     -1.65036376     -0.20107944
C          -5.29806162     -0.91236351      0.09951654
C          -5.19159744      0.34658826      0.72503692
H          -3.86748873      1.82480902      1.57362607
H          -1.80693257      0.52010514      0.98480391
H          -4.24426996     -2.63877455     -0.67094202
O          -6.31936622      1.11817615      0.94875757
H          -7.13597418      0.54827505      0.80767101
O          -6.57452948     -1.27651123     -0.32147477
C          -7.00290616     -2.60883227      0.08208024
H          -7.98794764     -2.68702961     -0.39156947
H          -6.31212819     -3.36857554     -0.30523488
H          -7.06930084     -2.65879209      1.17218978
C          -1.66978070     -1.83959468     -0.45536137
H          -1.09669960     -2.30340052      0.38019626
C          -0.76972952     -0.83592385     -1.25129822
H          -1.36067709      0.02787621     -1.63220771
C          -0.00169579     -1.49234621     -2.40200282
H           1.09049847     -1.47660802     -2.25511562
H          -0.33851385     -2.54065337     -2.57465137
O          -2.04624551     -2.79312647     -1.39335774
H          -2.56878991     -3.83890238     -0.97548551
O          -0.33352436     -0.81803672     -3.62934898
H          -0.07290247      0.13975366     -3.54661568
O           0.11752009     -0.32091489     -0.20753363
C           1.22211942      0.41560325     -0.57190479
C           1.29468742      1.41330795     -1.56714454
C           2.35515413      0.14324177      0.21786450
C           2.49276107      2.10778463     -1.78502764
C           3.53776664      0.84568929     -0.00083972
H           2.28188742     -0.62497673      0.98867117
C           3.61340780      1.81696318     -1.00793359
H           2.52832971      2.86477554     -2.56861005
H           4.41374626      0.63022939      0.61150772
H           4.54719748      2.34953728     -1.18193207
O           0.25970587      1.70733991     -2.45850888
C          -0.85122433      2.43176843     -1.85960405
H          -0.48789838      3.34442974     -1.38012956
H          -1.47757888      2.66213152     -2.72884922
H          -1.37197083      1.78338649     -1.14279526
C          -4.70350145     -0.61918901     -3.55994697
H          -4.56680046      0.23036424     -2.86167006
H          -4.88928443     -0.22059818     -4.57689841
C          -3.48050256     -1.53269746     -3.49931044
H          -2.54126814     -0.93344574     -3.64336525
H          -3.33801191     -1.97298859     -2.45264281
C          -2.15611906     -3.43417583     -4.31806374
H          -2.09186590     -4.30246853     -4.99971818
H          -1.29581320     -2.76648114     -4.51465424
H          -2.04068703     -3.80877972     -3.26859128
C          -3.59828899     -2.20287137     -5.89419197
H          -3.52274370     -3.04706586     -6.61148542
H          -4.57000241     -1.70998197     -6.06207890
H          -2.79492446     -1.48789232     -6.13842272
C          -4.59925989     -3.65950073     -4.17639884
H          -4.63653651     -4.47527788     -4.91268445
H          -4.46887327     -4.12551086     -3.17237085
H          -5.57718171     -3.13493627     -4.15303044
N          -3.47075283     -2.70035444     -4.47170826
O          -5.91695214     -1.30949013     -3.25635902
H          -6.09634043     -1.31826143     -2.27648576
Cl         -3.44885757     -5.07283098     -1.04553316
C          -6.52645519      5.44698490     -1.26398393
H          -7.60878226      5.46979057     -1.47972655
H          -5.96544582      5.37229508     -2.21435577
C          -6.14878610      4.30652959     -0.30016720
H          -5.07741299      4.37847174     -0.00275793
C          -7.05003194      4.25457927      0.95152240
H          -8.11948758      4.20389685      0.69102089
H          -6.78178674      3.39933231      1.60350688
O          -6.34700421      3.11241148     -1.06544934
H          -6.26235770      2.31476990     -0.47709304
O          -6.13326907      6.70675362     -0.71291005
H          -6.35116133      6.71649688      0.25971116
O          -6.76573725      5.47536725      1.67002435
H          -7.50257836      5.68154488      2.27891093
C          -2.97306061     -6.25088539     -7.11874413
H          -2.07140381     -6.88868092     -7.14643943
H          -3.57026302     -6.50096931     -6.22157902
C          -3.80210796     -6.36540722     -8.41291012
H          -4.67002655     -5.67129184     -8.38883899
C          -2.95179710     -6.13045912     -9.67993275
H          -2.08809943     -6.81595264     -9.72680289
H          -3.55258611     -6.22743482    -10.60066880
O          -4.23356863     -7.73111532     -8.45349237
H          -5.11243499     -7.80776394     -8.87697855
O          -2.58402325     -4.88592469     -6.92813443
H          -2.20223614     -4.53372229     -7.78582252
O          -2.49596239     -4.76164842     -9.57607556
H          -1.75569200     -4.60651309    -10.19866408
          93
 Energy =     -0.97290709 a.u.  #Cluster:   30
C          -2.85043332      3.35289548      0.07358665
C          -1.66398286      2.66286996      0.34100167
C          -1.69296723      1.32646627      0.75815635
C          -2.91226674      0.64326883      0.90972040
C          -4.09378061      1.32542095      0.65075401
C          -4.06674292      2.68671305      0.23816776
H          -2.84258502      4.39109659     -0.25974298
H          -0.70579024      3.17613946      0.21231344
H          -2.92034634     -0.39888824      1.23356433
O          -5.22491602      3.37510972      0.00654695
H          -6.01301509      2.75841752      0.12682559
O          -5.36451524      0.77694511      0.68847970
C          -5.69226151      0.04903268      1.90439680
H          -6.75812674     -0.16538952      1.75872881
H          -5.10777663     -0.87212877      1.95852183
H          -5.52604636      0.68762282      2.78213317
C          -0.39291027      0.63198652      1.04461903
H           0.36411927      1.35049036      1.47179264
C           0.20223173     -0.08728542     -0.18340129
H           0.42412859      0.62392814     -1.02029527
C          -0.63055620     -1.27097940     -0.70838609
H           0.01880441     -2.06006145     -1.15466517
H          -1.26635525     -1.72717325      0.07071840
O          -0.64632817     -0.35035347      2.08658429
H           0.13168283     -0.96517015      2.13202485
O          -1.41710311     -0.82077356     -1.80734232
H          -2.16665955     -0.26594293     -1.48928722
O           1.43197683     -0.71797576      0.28864708
C           2.53098801      0.08775826      0.59987771
C           2.75894956      1.42058905      0.17889087
C           3.47942826     -0.58277888      1.37880723
C           3.96147156      2.05205365      0.51686565
C           4.67475432      0.05890413      1.70753363
H           3.28433551     -1.61195423      1.70339099
C           4.91474845      1.36636406      1.27268429
H           4.14574293      3.09290440      0.22426817
H           5.42069764     -0.46993929      2.29896637
H           5.85006348      1.86593155      1.53002756
O           1.71730638      2.01475871     -0.49863615
C           1.94786646      3.31353102     -1.11193456
H           2.76427270      3.24987338     -1.83464677
H           0.98681766      3.49543827     -1.60561026
H           2.15440008      4.06749028     -0.33690880
C           1.01342403      1.69718719      6.12245051
H           0.15026606      1.18154310      6.58618339
H           1.58901354      0.95607923      5.52916698
C           0.52790176      2.88699713      5.28833181
H          -0.40208517      2.57009770      4.73305948
H           0.22210467      3.72244339      5.95337211
C           0.90358995      4.49685395      3.46909640
H           1.74974210      4.90552467      2.64890912
H           0.06145559      4.16658254      2.86507671
H           0.64474307      5.38360851      4.04348181
C           1.97477747      2.30310949      3.34432171
H           2.73946647      2.68880094      2.62288948
H           2.42987778      1.45852009      3.88415222
H           1.13198070      1.92754377      2.73024262
C           2.75487213      3.96279830      4.98899316
H           3.51666211      4.30691404      4.25020575
H           2.49785097      4.83861289      5.60357835
H           3.21521385      3.20414006      5.64904994
N           1.53946905      3.41275004      4.27416497
O           1.95069744      2.10208553      7.12331073
H           1.50404294      2.56838319      7.85821762
Cl          3.16489419      5.10956803      1.74124470
C          -3.29665823      0.72337189      5.73861450
H          -2.98937342      1.49283730      6.46664353
H          -2.94218968     -0.26764372      6.07960595
C          -2.80645071      1.03579625      4.31237694
H          -3.22433266      0.29914112      3.58860032
C          -3.14838310      2.47223819      3.86655033
H          -2.88010636      3.22783651      4.62265640
H          -2.67068443      2.71974157      2.90029794
O          -1.37792055      0.94324919      4.34768380
H          -1.04753894      0.43609308      3.53297018
O          -4.72108892      0.60726615      5.74506841
H          -5.11581092      1.37325748      5.24646902
O          -4.58289859      2.45413298      3.70088220
H          -4.90484614      3.32981690      3.40348224
C           1.26768714     -3.99099428      0.66328284
H           1.06836087     -2.94191220      0.95833717
H           0.84850150     -4.67323880      1.42335893
C           2.77957930     -4.21595618      0.45770062
H           3.01400754     -5.29675153      0.35614042
C           3.38542372     -3.41159739     -0.71318405
H           4.15066837     -2.70223812     -0.34007781
H           3.83258320     -4.07815945     -1.47519719
O           3.43997079     -3.69075451      1.63081874
H           3.49288408     -4.36392459      2.33356886
O           0.53802787     -4.30507557     -0.51927976
H           0.93706301     -3.78950677     -1.29053790
O           2.38135226     -2.70512794     -1.45045681
H           2.11637733     -1.87336864     -0.95870030
          93
 Energy =     -0.97151272 a.u.  #Cluster:   31
C          -4.66937015      1.86761099     -1.53675291
C          -3.42314038      1.83311180     -0.90035715
C          -3.03323983      0.72395303     -0.13905129
C          -3.88923449     -0.38209691     -0.00031411
C          -5.11798793     -0.36160066     -0.64949252
C          -5.51741311      0.76848719     -1.40522293
H          -4.99037380      2.73818806     -2.10918673
H          -2.75579635      2.70020000     -1.00151073
H          -3.57059689     -1.22908372      0.61155133
O          -6.72578106      0.77195542     -2.07342042
H          -7.34850056      0.12701023     -1.63096193
O          -6.03531445     -1.40408125     -0.71586564
C          -6.04767165     -2.32086743      0.41039618
H          -6.92147851     -2.94618217      0.19041427
H          -5.12614926     -2.91167012      0.41735460
H          -6.17786808     -1.77167996      1.34758475
C          -1.68471327      0.70566616      0.53896150
H          -1.31040644      1.74005518      0.75622125
C          -0.62025316     -0.05293615     -0.28746491
H          -0.56578600      0.33481085     -1.33015073
C          -0.74717485     -1.59306963     -0.28499253
H           0.23506704     -2.04518301     -0.04239661
H          -1.50099479     -1.94263409      0.44403329
O          -1.89102015      0.05059300      1.80897033
H          -1.01019250     -0.07944734      2.23539747
O          -1.17513981     -2.03086319     -1.54512860
H          -0.38410782     -1.71672643     -2.38922427
O           0.63269113      0.21486191      0.42730227
C           1.57080110      0.95067988     -0.27942958
C           1.49350478      2.35185141     -0.38945488
C           2.66737412      0.26621236     -0.82237648
C           2.52817276      3.07922419     -0.98853664
C           3.69494012      0.99354696     -1.42444830
H           2.69003462     -0.82340688     -0.77867125
C           3.62885097      2.39142112     -1.50254341
H           2.46079184      4.16281031     -1.06574340
H           4.54866044      0.46530870     -1.85045950
H           4.43560857      2.94701592     -1.97996904
O           0.31503410      2.99688732      0.01130321
C           0.47228046      3.85122543      1.18069788
H           1.02272845      4.75735582      0.90443680
H          -0.56489681      4.08398843      1.44703364
H           0.97388000      3.30335427      1.98299754
C          -5.75209229     -1.17767774     -4.14877147
H          -5.91875017     -1.51670221     -3.10175596
H          -5.72167791     -0.07082813     -4.17169716
C          -4.53949586     -1.83515885     -4.81219828
H          -4.84285649     -2.84376229     -5.21201307
H          -4.22038196     -1.24591913     -5.70266074
C          -2.25612622     -2.74768555     -4.61096108
H          -1.42640931     -3.00586227     -3.90808386
H          -2.62902547     -3.69098786     -5.05005512
H          -1.78512686     -2.12268545     -5.38924854
C          -3.73804522     -2.83893712     -2.66860021
H          -2.87543167     -2.85308744     -1.93648398
H          -4.60923353     -2.42488926     -2.13287389
H          -3.95224375     -3.88360713     -2.94879689
C          -2.85363345     -0.65836084     -3.42868547
H          -2.14080904     -0.78818048     -2.55205359
H          -2.25132362     -0.15741083     -4.20752034
H          -3.65551758      0.00807719     -3.09334421
N          -3.35355540     -2.00932519     -3.87104052
O          -6.86856532     -1.63094709     -4.95314940
H          -7.66526808     -1.09407145     -4.74174399
Cl          0.33139968     -1.07572232     -3.62658040
C          -1.43838589      6.51874359     -0.38038316
H          -1.58243653      5.70656833      0.35517968
H          -1.80621911      7.46567591      0.05192341
C          -2.10991280      6.19376588     -1.72899126
H          -1.88143576      6.98304410     -2.47760099
C          -1.73458832      4.79619066     -2.26381908
H          -2.27908551      3.99774156     -1.71513876
H          -1.94378037      4.71275326     -3.34603487
O          -3.53218487      6.10261303     -1.53054956
H          -3.92657295      6.99296023     -1.46165246
O          -0.03811991      6.73567883     -0.56884724
H           0.30562001      6.05045791     -1.22448373
O          -0.31694562      4.63150119     -2.13816997
H          -0.11239603      3.95188234     -1.42191875
C          -4.89967856     -5.44133136     -6.27756437
H          -4.76810428     -4.63807069     -7.02529683
H          -4.15247773     -6.23466957     -6.46163136
C          -6.33991664     -5.98895081     -6.27973472
H          -6.45173051     -6.81686747     -5.54587686
C          -7.39589844     -4.89274405     -6.02864605
H          -7.37161822     -4.11341669     -6.80797609
H          -8.41257242     -5.32277206     -5.96666882
O          -6.63637479     -6.44456528     -7.60877097
H          -6.38553984     -7.38441236     -7.71529789
O          -4.55821016     -4.90626823     -4.99099329
H          -5.40921432     -4.65068509     -4.50282704
O          -7.09946749     -4.33766320     -4.73079894
H          -7.13106010     -3.33175520     -4.76903679
          93
 Energy =     -0.97017281 a.u.  #Cluster:   32
C          -3.23779823      2.20050275     -0.24318858
C          -1.96817142      1.72258445      0.10327884
C          -1.83210772      0.60647145      0.93446479
C          -2.96210290     -0.07122324      1.42733978
C          -4.22231624      0.41003123      1.10069794
C          -4.36504713      1.54964645      0.25775504
H          -3.36040746      3.07411209     -0.88600154
H          -1.08460961      2.23751020     -0.27685809
H          -2.82572091     -0.94887309      2.05935482
O          -5.59368907      2.04399352     -0.09139500
H          -6.32313683      1.48539619      0.30078380
O          -5.43839922     -0.09167967      1.52449375
C          -5.42126140     -1.35092773      2.23982804
H          -6.49364260     -1.54121758      2.38146115
H          -4.95676522     -2.13175469      1.63009558
H          -4.91469548     -1.22693969      3.20158159
C          -0.45147801      0.15573826      1.33047532
H           0.14162468      1.01363571      1.74932512
C           0.31545475     -0.51287157      0.17153357
H           0.51906150      0.20893262     -0.64881849
C          -0.35973049     -1.78981208     -0.36582672
H           0.38903241     -2.47440094     -0.81204257
H          -0.92924708     -2.31848817      0.41935335
O          -0.60847582     -0.79044428      2.42323916
H           0.27064639     -1.23364045      2.59505131
O          -1.21105773     -1.45517754     -1.46049045
H          -1.98030386     -0.92625230     -1.14723883
O           1.55895359     -1.00622759      0.75181551
C           2.73454791     -0.31299963      0.46898680
C           3.00977753      0.99795039      0.92985126
C           3.73043834     -1.06936073     -0.15748986
C           4.30475783      1.51500159      0.80609727
C           5.02239332     -0.54790815     -0.26635659
H           3.49482596     -2.07076323     -0.52028883
C           5.30427214      0.73249454      0.21796440
H           4.54206930      2.51433602      1.15960139
H           5.82304922     -1.16057950     -0.69211417
H           6.32116961      1.12220869      0.14501513
O           1.94100654      1.66338879      1.48729037
C           2.15966825      2.99974992      2.00709492
H           2.56712843      3.65512042      1.23391866
H           1.13247627      3.31345589      2.27876600
H           2.79875188      2.95565014      2.89035504
C           3.42823064     -2.72840850      2.97273167
H           3.41714202     -3.13636614      1.94201948
H           3.58459936     -3.55726736      3.68688526
C           4.42843326     -1.61966780      3.08374038
H           5.52175951     -1.97797239      2.36709481
H           4.13907415     -0.72719538      2.51682545
C           5.89087659     -0.12350692      4.34111099
H           6.30233125      0.16107641      5.31872028
H           6.73962223     -0.40658518      3.67400678
H           5.42255715      0.76082945      3.87794107
C           5.61376693     -2.45619866      5.07096288
H           6.05636006     -2.21262670      6.04581394
H           4.92439596     -3.30853774      5.19708187
H           6.42973463     -2.80600768      4.39519535
C           3.75568254     -0.84338006      5.34252501
H           4.05804532     -0.73274068      6.39124110
H           3.31908173      0.10856246      4.99538241
H           2.92385928     -1.57999841      5.28094301
N           4.90400299     -1.27032622      4.45035292
O           2.08810108     -2.27966272      3.29756962
H           1.76538946     -1.69176570      2.56356843
Cl          6.91396718     -2.24535651      1.75940601
C          -2.55164513      0.75282803      5.02357846
H          -3.23859958      0.14708184      4.41009036
H          -2.37986303      0.25342207      5.99186199
C          -3.05961615      2.20078846      5.20288258
H          -2.32408207      2.80082360      5.78119400
C          -3.38986701      2.87437621      3.85670864
H          -4.20068088      2.34151409      3.32241975
H          -3.66527871      3.93697954      3.97726832
O          -4.31726211      2.12816388      5.88980956
H          -4.18990506      2.23657147      6.85292490
O          -1.27842346      0.90090907      4.36834588
H          -1.06862643      0.09385794      3.78888902
O          -2.24012713      2.87866698      3.00146231
H          -1.67627030      2.04497348      3.17674987
C          -2.04328730      6.95045115      2.47334941
H          -2.87651572      6.27270653      2.73228822
H          -2.42648063      7.98041274      2.37559340
C          -1.29264516      6.48095423      1.21124281
H          -0.39077382      7.10844839      1.04345345
C          -0.93670003      4.98156656      1.25160795
H          -1.82476973      4.35647787      1.02927395
H          -0.12188544      4.74452509      0.54645999
O          -2.16492316      6.57652802      0.07044408
H          -2.31462908      7.51023292     -0.17088931
O          -1.12482294      7.01695707      3.56748674
H          -0.62458035      6.14458461      3.60018098
O          -0.42481008      4.66593293      2.55974329
H          -1.09422310      4.04949582      3.02569757
          93
 Energy =     -0.96825418 a.u.  #Cluster:   33
C          -3.06267750      2.34031123     -0.42818172
C          -1.91453334      1.64481332     -0.04069708
C          -2.00798123      0.36469964      0.51856401
C          -3.25167208     -0.28772372      0.60958292
C          -4.39815426      0.40332632      0.24180744
C          -4.31528065      1.74835379     -0.22826795
H          -3.00812981      3.34980978     -0.83028426
H          -0.94038037      2.12415278     -0.14857949
H          -3.30796250     -1.31499071      0.97807952
O          -5.42661526      2.46333503     -0.54105215
H          -6.21520110      2.11477666     -0.00636033
O          -5.67821571     -0.13082439      0.23041869
C          -6.09635765     -0.77717093      1.46671291
H          -7.14995725     -0.99421624      1.26352570
H          -5.51835472     -1.69934151      1.61601965
H          -6.00136535     -0.07778079      2.30404139
C          -0.76642962     -0.26665948      1.09546824
H          -0.17714698      0.48530062      1.68279580
C           0.12981697     -0.86823689     -0.01319514
H           0.25518009     -0.14962075     -0.85353308
C          -0.35624285     -2.23353187     -0.51988287
H           0.48301455     -2.85404685     -0.88574723
H          -0.93081683     -2.77924197      0.25481847
O          -1.20369802     -1.28144208      2.01967277
H          -0.42299420     -1.58477252      2.57684416
O          -1.17818296     -2.03841340     -1.67757188
H          -1.94550105     -1.43295194     -1.45042619
O           1.44280753     -1.16271705      0.58384823
C           2.51320984     -0.36492901      0.18623672
C           2.57934993      1.01999841      0.48703137
C           3.59390630     -1.02061985     -0.40250359
C           3.74351541      1.73639249      0.19417992
C           4.75758683     -0.29556120     -0.68462182
H           3.52126246     -2.08697341     -0.62122354
C           4.82661539      1.06791440     -0.38867655
H           3.81887791      2.79647099      0.42152451
H           5.60897524     -0.80050312     -1.13895335
H           5.73715143      1.62532934     -0.61291941
O           1.44307690      1.52228216      1.06982160
C           1.40053855      2.93639838      1.39239135
H           1.52135778      3.53699516      0.48785550
H           0.37541652      3.03772392      1.80033001
H           2.15063986      3.17313130      2.14988281
C          -2.43185268      3.05437093      3.08753970
H          -2.68282429      2.44173502      2.19393211
H          -3.28137671      3.72462181      3.30941024
C          -1.98148081      2.20394931      4.29269109
H          -1.06000648      1.64676222      3.99753365
H          -1.68474026      2.88010132      5.12392374
C          -2.47786822      0.55415718      6.04209192
H          -3.18824469     -0.19119467      6.43971145
H          -1.53047274      0.02816074      5.83432825
H          -2.29738343      1.28977141      6.84218138
C          -3.28729254      0.14917010      3.75957454
H          -3.96426641     -0.63264083      4.13286141
H          -3.78153743      0.58490681      2.85654546
H          -2.35652191     -0.33804649      3.39409981
C          -4.30723214      1.91872586      5.11285926
H          -5.04692350      1.28267100      5.60061658
H          -4.18369465      2.84451666      5.66999474
H          -4.88312467      2.24081283      4.06153073
N          -3.03303262      1.21817600      4.79225924
O          -1.27255775      3.80900764      2.70463274
H          -1.31400804      4.71340721      3.07007434
Cl         -5.44226119      2.49718350      2.46702060
C           3.92128454     -1.23594520      3.55287411
H           3.85864982     -0.99059707      2.47679346
H           4.97655985     -1.17648010      3.87436750
C           3.29780513     -2.61153826      3.86445615
H           3.39606331     -2.84498788      4.94728291
C           1.83780314     -2.76262507      3.39101434
H           1.79828166     -3.33725043      2.44257619
H           1.20572865     -3.24832851      4.15540014
O           3.98888870     -3.61276991      3.09379545
H           4.87008056     -3.79457798      3.47442926
O           3.26870612     -0.22638779      4.32541960
H           2.29484260     -0.24187133      4.10557454
O           1.22019160     -1.47676020      3.20336069
H           1.46752437     -1.11145551      2.28786495
C          -5.88394195     -3.91770707     -0.16886518
H          -5.76079066     -4.95652862     -0.52005997
H          -6.83714421     -3.82960291      0.38155584
C          -5.79330367     -2.89936533     -1.32128634
H          -5.77895961     -1.85112071     -0.92659257
C          -4.56802111     -3.14293244     -2.22189030
H          -4.54018821     -4.16889284     -2.62309508
H          -4.52282325     -2.41639200     -3.05209864
O          -6.94636190     -3.12451061     -2.14839913
H          -7.43723486     -2.28630546     -2.27009842
O          -4.87733494     -3.63472613      0.81138150
H          -4.01235889     -3.45627132      0.34046471
O          -3.44159926     -2.92100761     -1.34987497
H          -2.59208308     -3.24014493     -1.77055948
          93
 Energy =     -0.96632331 a.u.  #Cluster:   34
C          -2.45414401      2.13748190      1.18229369
C          -1.46447075      1.17758432      1.43086698
C          -1.78602315     -0.18225381      1.48867725
C          -3.11116760     -0.60824130      1.30414116
C          -4.09515394      0.33446246      1.03593008
C          -3.76721857      1.71571465      0.97512378
H          -2.21954714      3.19805203      1.14890925
H          -0.42674439      1.49714038      1.55993718
H          -3.35601518     -1.67375699      1.35975657
O          -4.72030196      2.67229742      0.71109959
H          -5.60424569      2.23272529      0.55775968
O          -5.44042350      0.07358539      0.83539329
C          -5.76411147     -1.26668259      0.37367096
H          -6.82174892     -1.17114479      0.11187385
H          -5.14808151     -1.53766367     -0.49339744
H          -5.61168146     -1.98189943      1.18824005
C          -0.68912964     -1.19959085      1.72663030
H          -0.04401928     -0.91330341      2.60035586
C           0.19465930     -1.33327956      0.45564410
H          -0.13647144     -0.64706368     -0.35739841
C           0.36447428     -2.76206634     -0.08341064
H           1.39266303     -2.91748951     -0.45747867
H           0.13474147     -3.52635700      0.68363755
O          -1.20111665     -2.46383884      2.13958508
H          -1.89808127     -2.79717786      1.51106189
O          -0.47095581     -2.94299285     -1.21391866
H          -1.52526643     -2.97673249     -0.90204313
O           1.50606987     -0.89607099      0.95665901
C           2.37411548     -0.44679577     -0.02359885
C           2.15419419      0.77083032     -0.72636123
C           3.52920638     -1.18905882     -0.25841584
C           3.10982470      1.23351340     -1.63255923
C           4.46815990     -0.73742731     -1.19373476
H           3.69094725     -2.11568854      0.28960724
C           4.26395740      0.46905698     -1.86352985
H           2.97357936      2.17213540     -2.15969308
H           5.34268426     -1.34910353     -1.41310120
H           5.00246881      0.82607368     -2.57949924
O           0.95655232      1.37713691     -0.42301078
C           0.60594566      2.58066124     -1.14778243
H           0.61247111      2.40278744     -2.22545664
H          -0.41845939      2.76008784     -0.78556259
H           1.27682684      3.39526447     -0.86390861
C          -3.73585020     -5.54059806     -2.87322017
H          -3.35281997     -5.74629381     -1.85616087
H          -4.22451312     -4.54326848     -2.88177194
C          -2.66605710     -5.70469103     -3.97673778
H          -2.46331489     -6.79748920     -4.09777544
H          -3.09988566     -5.35910587     -4.94216728
C          -0.40058580     -5.32375669     -4.84399260
H           0.59528986     -4.84551048     -4.67747376
H          -0.20930875     -6.41472896     -4.89019220
H          -0.77772614     -4.99279091     -5.82212421
C          -0.74007429     -5.43717714     -2.41515785
H           0.35441203     -5.24114880     -2.39636419
H          -1.13843589     -4.84115337     -1.54706985
H          -0.92849278     -6.50154691     -2.21974041
C          -1.56159107     -3.48276883     -3.70494480
H          -0.67221740     -2.95714857     -3.27274255
H          -1.77518771     -3.08156445     -4.70188986
H          -2.39502738     -3.19043945     -3.02363182
N          -1.35393241     -4.97846662     -3.71553612
O          -4.78782480     -6.44567222     -3.21540729
H          -4.58084684     -7.34743358     -2.89815651
Cl         -3.14202584     -3.46364258     -0.60735717
C           3.37202034     -3.86899338     -2.87132482
H           2.97384811     -3.79715558     -1.84215272
H           2.75965609     -3.23814358     -3.54193085
C           3.46823300     -5.32320493     -3.37013729
H           4.01695800     -5.37048660     -4.34048322
C           4.13951336     -6.25341166     -2.33856165
H           3.75439223     -6.10444583     -1.31555888
H           4.03322762     -7.31872416     -2.62247584
O           2.11888761     -5.76320260     -3.59177824
H           2.10621213     -6.76016004     -3.70810400
O           4.67245494     -3.27434748     -2.91240214
H           5.34765901     -3.93677665     -2.60167447
O           5.53428813     -5.88664228     -2.39888660
H           6.01942417     -6.28885739     -1.65068395
C           0.95197203     -8.78614622     -2.68749862
H           1.07859436     -9.75357184     -2.17136076
H           0.88605322     -7.97391276     -1.93572552
C          -0.23344089     -8.76851207     -3.67158662
H          -0.15806989     -7.86865778     -4.34871413
C          -0.29596419    -10.05276998     -4.51989224
H          -0.31564591    -10.97350006     -3.91498571
H          -1.16034191    -10.04317664     -5.21132573
O          -1.46592496     -8.54596916     -2.99485365
H          -1.66307185     -9.26033415     -2.34771991
O           2.15244468     -8.49785172     -3.42128018
H           2.16352549     -9.06619274     -4.25304461
O           0.91138188     -9.99464523     -5.31138301
H           1.17529612    -10.89631280     -5.59714488
          93
 Energy =     -0.96543806 a.u.  #Cluster:   35
C          -2.40269234      2.56123650     -1.64877853
C          -1.53685372      1.66191421     -1.01551914
C          -2.03603104      0.64838665     -0.18829594
C          -3.41291248      0.55358826      0.06227126
C          -4.28482770      1.42088233     -0.59041660
C          -3.77758165      2.42760643     -1.45338244
H          -2.02691552      3.35951959     -2.28755934
H          -0.45747457      1.76094650     -1.16876476
H          -3.78441437     -0.19559387      0.76609209
O          -4.60336920      3.27851744     -2.14993379
H          -5.55010552      3.16264247     -1.85710069
O          -5.66225660      1.42039378     -0.51097121
C          -6.27755549      0.32697460      0.21943512
H          -7.33629358      0.44577616     -0.03834949
H          -5.88862745     -0.63996693     -0.12568661
H          -6.10333005      0.46821217      1.29108853
C          -1.06362732     -0.34354831      0.41040219
H          -0.32806197      0.17730510      1.08511229
C          -0.27148640     -1.07473280     -0.70117208
H           0.11375012     -0.31896553     -1.42714694
C          -0.96371657     -2.22864437     -1.44783538
H          -0.41876987     -2.46538486     -2.39058171
H          -1.01691665     -3.13957791     -0.81394886
O          -1.79033749     -1.24579897      1.27697942
H          -1.22190606     -2.04607913      1.51136258
O          -2.26896834     -1.86477842     -1.89501932
H          -2.94290765     -1.95524973     -1.14377175
O           0.84479486     -1.73100576     -0.02585442
C           2.10615582     -1.20660577     -0.29496049
C           2.44168349      0.16667289     -0.16842935
C           3.08868888     -2.14093907     -0.62844511
C           3.75588578      0.58855755     -0.39417238
C           4.40704741     -1.71212379     -0.83535270
H           2.81460623     -3.19105294     -0.72453978
C           4.72877675     -0.35847487     -0.72845768
H           4.02968991      1.63986623     -0.33014059
H           5.17748999     -2.43805168     -1.08978869
H           5.75577903     -0.02128855     -0.92138784
O           1.38520252      1.00278478      0.14322343
C           1.70523113      2.37773880      0.47832947
H           2.09167674      2.89423714     -0.40565570
H           0.72651471      2.77104871      0.78127254
H           2.41435426      2.41338998      1.31099896
C          -1.55931547     -2.51541874     -5.83405569
H          -1.71782683     -3.61554541     -5.82089178
H          -1.67317763     -2.14359503     -6.86835964
C          -2.61952061     -1.88161466     -4.88625245
H          -3.63126124     -2.21231720     -5.18680727
H          -2.42865302     -2.28712399     -3.85507776
C          -3.74052241      0.07981570     -3.91698821
H          -3.76239025      1.17806995     -3.79333506
H          -4.71113081     -0.23764574     -4.32150597
H          -3.63663870     -0.35457218     -2.89863644
C          -2.74049537      0.27029225     -6.15638447
H          -2.79174774      1.36917745     -6.09336028
H          -1.84764401      0.05142497     -6.79999934
H          -3.62988695     -0.09766802     -6.68449675
C          -1.29666178      0.10007974     -4.15129191
H          -1.05303200      1.14312267     -4.39305712
H          -1.33106941     -0.04037899     -3.05753826
H          -0.43171167     -0.52414055     -4.52424708
N          -2.58339445     -0.36031899     -4.79528146
O          -0.27306058     -2.28966861     -5.35653998
H           0.25422199     -1.46359246     -6.01547175
Cl          0.54311193     -0.17877643     -6.91896496
C           6.30995218      2.31381343     -3.69293751
H           5.80677613      1.50816122     -4.26055899
H           6.00012944      3.29657538     -4.09336743
C           7.84324146      2.13396919     -3.72430145
H           8.36697314      3.09813508     -3.54335926
C           8.36967887      1.05803276     -2.75491842
H           9.23205932      0.52423879     -3.20191297
H           8.64671821      1.49434785     -1.77505597
O           8.23437184      1.64180329     -5.02149195
H           8.01107957      2.28346657     -5.72472835
O           5.83120901      2.32913460     -2.34891408
H           6.00994443      1.42789802     -1.94165034
O           7.35132231      0.10454395     -2.40648703
H           7.12325276     -0.44190476     -3.19589186
C          -4.18627180     -3.62794184      0.60589132
H          -4.62376142     -3.62672834      1.61730896
H          -4.94685820     -3.99745943     -0.11129942
C          -2.88924633     -4.45183354      0.49944581
H          -2.16415800     -3.95195485     -0.19557800
C          -2.20587207     -4.75645422      1.84301149
H          -2.87663553     -5.29001608      2.53688863
H          -1.28496788     -5.35482643      1.68994161
O          -3.23027225     -5.75119316     -0.00711133
H          -3.24477951     -5.73582892     -0.98853319
O          -3.96039235     -2.27517606      0.20353624
H          -3.23564571     -1.82589203      0.78927473
O          -1.72354650     -3.53768090      2.42703623
H          -2.41267074     -3.12825179      2.99478448
          93
 Energy =     -0.96409268 a.u.  #Cluster:   36
C          -2.78893924      3.07388155      0.50107078
C          -1.73892145      2.30933204      1.02468579
C          -1.77561472      0.91358991      0.96340137
C          -2.87998035      0.24703557      0.40050565
C          -3.92222962      1.00101580     -0.12137920
C          -3.87977013      2.42304031     -0.07353568
H          -2.74844885      4.17171780      0.54043304
H          -0.89290527      2.84092860      1.47544874
H          -2.90210250     -0.84445897      0.40681091
O          -4.88825380      3.19179401     -0.59694641
H          -5.63942494      2.61271534     -0.90681974
O          -5.04863705      0.51646183     -0.76283348
C          -5.35349167     -0.88792574     -0.57565343
H          -6.32830093     -0.97629478     -1.07147685
H          -4.59800127     -1.50058590     -1.07793340
H          -5.42503376     -1.12576015      0.48979295
C          -0.60194907      0.10419815      1.46247888
H          -0.22943913      0.46839110      2.45421332
C           0.54964743      0.16269128      0.42332426
H           0.74650485      1.22472113      0.11112208
C           0.32526180     -0.73328385     -0.79943887
H           1.27232202     -0.99012536     -1.31710256
H          -0.22183712     -1.66342136     -0.54506812
O          -1.05091235     -1.25035435      1.60264913
H          -0.39033469     -1.75885076      2.15434475
O          -0.41735783      0.01168731     -1.79066517
H          -1.33171003      0.19966964     -1.44814874
O           1.69816052     -0.37759138      1.14378843
C           2.95066472      0.11457190      0.80913435
C           3.27529133      1.47800192      0.64440349
C           3.95328163     -0.86291539      0.73393125
C           4.60243049      1.85952575      0.41595781
C           5.27337621     -0.47037924      0.50569188
H           3.68590123     -1.91160471      0.86143654
C           5.59722217      0.88205049      0.34496040
H           4.84123376      2.91602153      0.29892874
H           6.05691813     -1.22621879      0.44844901
H           6.63101866      1.17504740      0.16601271
O           2.28255928      2.44931713      0.58578573
C           1.99682789      3.10847993      1.85650399
H           2.86790509      3.68260291      2.17480604
H           1.15921588      3.77693485      1.58566539
H           1.70647054      2.37104186      2.61378035
C          -0.92813330      4.50025189     -3.99152440
H          -1.36781311      3.52916342     -3.68130674
H          -1.75040712      5.21976681     -4.16819875
C           0.06384514      5.06782105     -2.97495352
H           0.66026931      5.88981170     -3.42413518
H          -0.50912683      5.54603632     -2.11988739
C           1.86358363      4.72599935     -1.34903129
H           2.51418865      4.03160434     -0.79759770
H           2.44789208      5.55269022     -1.74732104
H           1.13921460      5.18319521     -0.50141850
C           1.89803369      3.43569475     -3.44357227
H           2.50250882      2.60708986     -3.03703954
H           1.29727495      3.04253269     -4.29069032
H           2.59042505      4.18451094     -3.85715164
C           0.22103253      2.93599285     -1.70587103
H           0.86062440      2.34022644     -1.01168122
H          -0.58422807      3.36666770     -1.06428156
H          -0.22504909      2.23588769     -2.42965712
N           1.01449790      4.03511760     -2.37142376
O          -0.28186511      4.17938821     -5.22900758
H          -0.09532758      4.98644989     -5.74840789
Cl         -0.37073004      5.52816710      0.40114578
C           1.57959357     -2.87179610     -3.29369677
H           1.76407810     -1.96385372     -2.68283982
H           2.43059065     -3.56617728     -3.18077331
C           1.30296980     -2.52844553     -4.77025929
H           1.01418629     -3.44420755     -5.33055539
C           0.24987723     -1.41283873     -4.94480476
H           0.71555524     -0.41471430     -4.86493451
H          -0.27088543     -1.50002031     -5.91579390
O           2.49500456     -1.95936731     -5.34248666
H           3.11061032     -2.66431016     -5.62111062
O           0.46669502     -3.58437385     -2.75065033
H          -0.37682089     -3.09943085     -3.00823744
O          -0.78145659     -1.57885596     -3.96463293
H          -0.63159080     -0.93995632     -3.19550802
C           2.08268939     -0.00828869      5.03030020
H           2.88161556     -0.73659360      4.80424094
H           2.49006136      0.80926941      5.65296678
C           0.88501691     -0.70347291      5.71449810
H           0.24840127      0.03272308      6.25503113
C           0.02188271     -1.54445409      4.76043733
H          -0.34953916     -2.45421952      5.26838966
H          -0.82664204     -0.95476092      4.35525595
O           1.39753822     -1.66405751      6.66020048
H           1.77112132     -1.21766655      7.44370569
O           1.65663502      0.64855260      3.84056944
H           1.53535261     -0.02744747      3.10497518
O           0.75434984     -1.91044271      3.57799060
H           1.34543171     -2.67244979      3.75749400
          93
 Energy =     -0.96400462 a.u.  #Cluster:   37
C          -3.81865603      2.91100988     -0.05865019
C          -2.60952963      2.34947208      0.36804654
C          -2.58194664      1.08069408      0.95829081
C          -3.76650708      0.34552116      1.13895937
C          -4.96884194      0.90109255      0.72000787
C          -4.99934024      2.19017419      0.12260825
H          -3.85416836      3.89506396     -0.52385506
H          -1.68571392      2.91357291      0.22808872
H          -3.71672718     -0.64188818      1.60145601
O          -6.17411924      2.76576250     -0.29545879
H          -6.94495652      2.16994805     -0.07862529
O          -6.22190253      0.30904159      0.77802125
C          -6.38311836     -0.78092413      1.71752732
H          -7.46010280     -0.97895822      1.65233009
H          -5.80114074     -1.64622835      1.38537526
H          -6.09523932     -0.46462683      2.72446698
C          -1.26581243      0.50362609      1.41715880
H          -0.81733051      1.12690201      2.23693230
C          -0.25977419      0.35760079      0.24944113
H           0.02606849      1.34888307     -0.18310726
C          -0.71872315     -0.60809283     -0.84983658
H          -0.61372582     -1.65871166     -0.52298560
H          -1.77537588     -0.40488372     -1.12047037
O          -1.53494155     -0.79941517      1.97421820
H          -0.67572851     -1.21002439      2.23243266
O           0.06432362     -0.47573141     -2.01670954
H           0.43495782      0.62117660     -2.18212171
O           0.88827010     -0.22684234      0.95762485
C           2.13753941     -0.03451261      0.40659777
C           2.65765438      1.26071710      0.11069828
C           2.94431861     -1.16077491      0.26666879
C           3.97164692      1.40084901     -0.33136267
C           4.27409801     -1.00658780     -0.15530765
H           2.53587286     -2.14105483      0.50282788
C           4.77559717      0.25788809     -0.45556926
H           4.37330830      2.37835511     -0.58704798
H           4.91278945     -1.88259804     -0.23406584
H           5.80823459      0.37123685     -0.78296771
O           1.76944520      2.28151496      0.35934101
C           2.16885024      3.63753698      0.01924588
H           2.41472743      3.70363486     -1.04883792
H           1.24610004      4.19419964      0.22887817
H           2.99946730      3.94816184      0.65677534
C           0.10797590     -3.06292753     -4.87175351
H          -0.76042717     -3.57714146     -4.41709149
H          -0.26394604     -2.33865803     -5.62602407
C           0.98680102     -2.43390018     -3.80054535
H           0.31778596     -1.93764345     -2.99646482
H           1.56755574     -3.20995522     -3.26015959
C           2.73437581     -0.84959322     -3.12177873
H           3.24034363      0.11123278     -3.33258842
H           2.04851932     -0.61462464     -2.25392859
H           3.47280740     -1.57968284     -2.76985670
C           1.13418249     -0.21151834     -4.89974897
H           1.73980439      0.71282282     -4.99243974
H           0.71797953     -0.46252837     -5.88419781
H           0.29422221      0.07676090     -4.21580895
C           2.88439882     -1.89831978     -5.34223502
H           3.51267553     -1.09789549     -5.76883355
H           3.55226642     -2.66258356     -4.91207108
H           2.33923067     -2.38766440     -6.17425182
N           1.93321902     -1.34797745     -4.30298558
O           0.87123436     -3.99928607     -5.66042227
H           0.93849824     -4.86737056     -5.21383629
Cl          1.26414681      1.92559897     -2.59075434
C           2.02714748      4.21675185      3.76358160
H           1.13845315      4.56111844      4.31948815
H           2.00389253      4.64878838      2.74687431
C           2.11710828      2.67794834      3.72562779
H           3.01757842      2.35655067      3.15785462
C           2.07957009      2.01526114      5.11868269
H           1.08992364      1.55747103      5.30430494
H           2.86883419      1.24836705      5.22737201
O           0.93174344      2.20300412      3.07131813
H           1.12402975      2.03615667      2.10638917
O           3.20997947      4.76441242      4.34938826
H           3.35150238      4.33462008      5.23989499
O           2.39830454      2.96214499      6.15487477
H           1.58460892      3.42311565      6.45063521
C          -2.35505823     -4.76347745     -9.68000064
H          -2.69626177     -5.47233044     -8.90459610
H          -3.07652443     -4.76691578    -10.51712475
C          -0.91793300     -5.06891139    -10.14824082
H          -0.56123065     -4.29139083    -10.86021738
C           0.06672287     -5.22252664     -8.97287947
H          -0.25965260     -5.99932619     -8.26247060
H           1.08658420     -5.45043027     -9.33274611
O          -0.89324001     -6.36610879    -10.76709851
H          -1.21779878     -6.31130742    -11.68853078
O          -2.42427882     -3.43341938     -9.16228195
H          -1.61642235     -3.26690545     -8.59800215
O           0.09398640     -3.92995984     -8.33391243
H           0.37234684     -4.02301444     -7.38439637
          93
 Energy =     -0.96322427 a.u.  #Cluster:   38
C          -3.32418269      1.73870666     -0.17071642
C          -2.00058257      1.28793991     -0.17465357
C          -1.68138723     -0.02142754      0.20789576
C          -2.68994324     -0.91501405      0.60725430
C          -4.00392846     -0.46753096      0.62170902
C          -4.32975205      0.86065106      0.23953606
H          -3.58327097      2.75310169     -0.46883305
H          -1.21289068      1.97717199     -0.48022174
H          -2.42780742     -1.93941962      0.88861295
O          -5.62254200      1.30983330      0.25659280
H          -6.22679360      0.58166624      0.59377394
O          -5.12332254     -1.23182532      0.93409024
C          -4.98477985     -2.13595230      2.06272465
H          -6.02665159     -2.48056891      2.20159272
H          -4.32062998     -2.96224957      1.79846197
H          -4.62600716     -1.59414082      2.94082041
C          -0.24059779     -0.47195321      0.24115150
H           0.25133861     -0.09517056      1.17385057
C           0.54938746     -0.01157009     -1.00421123
H           0.49810013      1.09457481     -1.14486953
C           0.17748566     -0.75789377     -2.29493509
H           1.04599555     -1.32589335     -2.69259975
H          -0.67528665     -1.44718835     -2.14837897
O          -0.24241931     -1.90719290      0.31494723
H           0.68200696     -2.24376050      0.16457236
O          -0.10817450      0.20101048     -3.31836676
H          -1.03027540      0.52452318     -3.23024309
O           1.94917823     -0.38816568     -0.82527439
C           2.62121046      0.14842574      0.25917857
C           2.63565514      1.52168138      0.59147248
C           3.40791119     -0.76204923      0.97723116
C           3.42883715      1.97542569      1.65156454
C           4.21782813     -0.29605616      2.01215204
H           3.37344756     -1.82861302      0.70053919
C           4.22330798      1.06303706      2.35021720
H           3.43614342      3.02826467      1.92053846
H           4.84671145     -0.99851119      2.56278230
H           4.85544266      1.41613488      3.16534121
O           1.90000833      2.36528089     -0.23347415
C           1.21189469      3.45686513      0.43041141
H           1.93523198      4.18301792      0.81087642
H           0.61509566      3.88454738     -0.38425049
H           0.57409159      3.07291411      1.23257356
C           5.15893752      4.05029947     -3.40944004
H           5.37274826      4.35573056     -2.37062090
H           6.10068961      3.73305222     -3.90607601
C           4.05232980      2.98238955     -3.49321258
H           3.21382690      3.23997109     -2.80515767
H           3.61615425      3.00708815     -4.52193843
C           3.35405228      0.63492892     -3.25349598
H           3.69940021     -0.41087463     -3.00282286
H           2.57532930      0.88438435     -2.50851221
H           2.89267898      0.61190948     -4.24945103
C           5.11298142      1.52347655     -1.78490001
H           5.27105683      0.44660997     -1.48414895
H           6.11668292      1.98007116     -1.72387577
H           4.44594117      1.98322497     -1.04351726
C           5.57036911      1.12443179     -4.18597055
H           5.77305761      0.02621352     -4.05849487
H           5.24466038      1.29512035     -5.21931197
H           6.55234524      1.60631123     -4.02135520
N           4.53571158      1.57393411     -3.17848437
O           4.75035933      5.17274928     -4.18944614
H           4.04988463      5.68232876     -3.73235234
Cl          7.82828227     -0.11081306     -2.27355803
C          -7.61200662     -2.42997455     -1.13440475
H          -7.88463693     -1.78458962     -0.28153760
H          -8.14558386     -2.09371157     -2.04238816
C          -7.89510082     -3.91624867     -0.83415856
H          -7.51544304     -4.56122690     -1.65842655
C          -7.33837090     -4.38326697      0.51962779
H          -7.69608527     -5.40234588      0.75960489
H          -6.23295935     -4.34720574      0.53638395
O          -9.31864246     -4.09928119     -0.69623014
H          -9.77192483     -3.95696022     -1.54919731
O          -6.22970316     -2.29376863     -1.46086436
H          -5.71175853     -2.06509603     -0.64178370
O          -7.72839124     -3.49931114      1.57912434
H          -8.71298327     -3.42797418      1.59163911
C           3.66635452     -2.81438327     -1.79788278
H           3.57197373     -3.43279603     -2.70456914
H           2.98094676     -1.94784223     -1.86557340
C           5.11965848     -2.35763659     -1.54328283
H           5.22289179     -1.96146521     -0.50483691
C           6.12425124     -3.51637892     -1.74105689
H           6.08817585     -3.92851010     -2.75894316
H           7.15590775     -3.19814959     -1.50188785
O           5.38508930     -1.34448009     -2.46437985
H           6.52963390     -0.91867790     -2.35130348
O           3.17811483     -3.56779026     -0.67470617
H           3.91147165     -4.17884711     -0.37386886
O           5.74660261     -4.52284749     -0.76606885
H           5.93047787     -5.41212877     -1.11675952
          93
 Energy =     -0.96256154 a.u.  #Cluster:   39
C          -2.55638761      2.52104257      0.15644339
C          -1.38768329      1.79608216      0.41687699
C          -1.45425511      0.45616974      0.81514892
C          -2.69372358     -0.17893998      0.99959044
C          -3.85747385      0.53861906      0.75110495
C          -3.78677536      1.88946863      0.31804028
H          -2.50448392      3.56733978     -0.16649549
H          -0.42263832      2.28938142      0.29053230
H          -2.71373037     -1.21971064      1.33106501
O          -4.93012977      2.60587219      0.02231002
H          -5.74348571      2.06255716      0.23497099
O          -5.15540335      0.07388067      0.83626940
C          -5.37365190     -1.14022317      1.59782547
H          -6.46897761     -1.21541913      1.58979577
H          -4.91653915     -1.99034311      1.08241923
H          -4.98637806     -1.02771081      2.61464130
C          -0.17608907     -0.33060648      1.00198592
H           0.50493194      0.16508768      1.73466838
C           0.55287765     -0.48317800     -0.35789295
H           0.68629082      0.50585858     -0.85160993
C          -0.12053221     -1.48285278     -1.31343246
H           0.60714981     -1.87308869     -2.05197660
H          -0.60328901     -2.30995083     -0.76190519
O          -0.53562014     -1.62759004      1.49689777
H           0.23016891     -2.00381259      2.04211843
O          -1.08119317     -0.80724797     -2.12494943
H          -1.82648406     -0.47611585     -1.57491216
O           1.85077739     -1.06960940     -0.02986531
C           2.95836020     -0.34662710     -0.46168809
C           3.27703762      0.93015499      0.05274168
C           3.82550098     -0.98497687     -1.34915007
C           4.45377145      1.57096080     -0.33697310
C           5.01859751     -0.35588894     -1.71543393
H           3.57746732     -1.97895856     -1.75020446
C           5.32213310      0.91568826     -1.22058364
H           4.70865156      2.55502316      0.04505820
H           5.70438124     -0.88560232     -2.39099051
H           6.24953905      1.40649663     -1.51853026
O           2.37074605      1.41145332      0.99886274
C           2.37758671      2.83929218      1.25365635
H           2.24239289      3.39102819      0.31680676
H           1.50667288      2.96244786      1.91028950
H           3.30370333      3.12842885      1.75766519
C           4.44722802     -6.33551459     -0.96316733
H           4.45073780     -7.31561315     -0.45382859
H           3.87848077     -6.39946452     -1.91316820
C           3.86088158     -5.22771403     -0.03375222
H           3.97208572     -5.51954590      1.02751395
H           4.50686474     -4.31640706     -0.17637483
C           1.95847266     -3.82906118      0.68310795
H           0.92651786     -3.47517678      0.49831207
H           2.00117971     -4.19891104      1.72366029
H           2.59691583     -2.91821163      0.64005509
C           1.52827274     -6.08223570     -0.20134770
H           0.46137932     -5.82424484     -0.31303575
H           1.77341174     -6.83133129     -0.97569623
H           1.65219044     -6.56843645      0.78106962
C           2.27473539     -4.28335651     -1.71390298
H           1.22802880     -4.13161759     -2.00409093
H           2.81613494     -3.30265875     -1.79585726
H           2.78013141     -4.92105303     -2.47455985
N           2.41174072     -4.85851181     -0.32421762
O           5.77946509     -6.02643909     -1.21468512
H           5.81224716     -5.12907195     -1.90485685
Cl          5.21122507     -3.77867923     -2.71554895
C           1.38513552     -2.12943131      4.36296087
H           0.50029998     -1.47352090      4.45575422
H           1.15827647     -3.11461959      4.80943789
C           2.64232749     -1.49414747      4.98460400
H           3.52278979     -2.16614559      4.87341849
C           2.94371207     -0.10186308      4.38637531
H           2.09748292      0.59346624      4.50749119
H           3.85692233      0.34419510      4.81896717
O           2.30723620     -1.31956956      6.36733159
H           3.11712965     -1.28831868      6.91724515
O           1.61123927     -2.40032880      2.96900367
H           2.24372164     -1.69056996      2.58157101
O           3.20881700     -0.35763007      2.99465982
H           2.91457011      0.40854760      2.42048445
C          -2.30601843      5.20127295      2.29918390
H          -2.36349009      4.09927143      2.36939690
H          -1.36323414      5.54504600      2.75794745
C          -3.53766203      5.88349656      2.92501024
H          -3.51599186      6.97837215      2.73245453
C          -4.86872383      5.26658297      2.44739658
H          -5.02302431      4.26362513      2.87773235
H          -5.72528060      5.91718774      2.70491620
O          -3.53451611      5.62405871      4.33990561
H          -2.99537227      6.28896168      4.80937162
O          -2.19091322      5.57619417      0.92305978
H          -3.11265506      5.57560229      0.51514615
O          -4.83326253      5.22259732      1.01139444
H          -4.91480501      4.27938086      0.69233626
          93
 Energy =     -0.96191120 a.u.  #Cluster:   40
C          -3.35634354      2.43568847      0.23041255
C          -2.09225668      1.86020822      0.39958137
C          -1.96046218      0.49671704      0.68288231
C          -3.09479734     -0.32285046      0.81686223
C          -4.35207799      0.24378655      0.65043392
C          -4.48764241      1.62906794      0.35784142
H          -3.47387811      3.49636509      0.00980456
H          -1.20047513      2.49358674      0.31207984
H          -2.96714199     -1.37911493      1.06177437
O          -5.71633434      2.21339192      0.18605429
H          -6.44126670      1.54208306      0.34101219
O          -5.56824047     -0.41905537      0.68699140
C          -5.61417259     -1.64849916      1.45320472
H          -6.68564465     -1.88487509      1.43690068
H          -5.03122854     -2.42335787      0.94610360
H          -5.25795699     -1.47812954      2.47329436
C          -0.57957064     -0.09492493      0.82664916
H           0.05660105      0.50924574      1.52214318
C           0.11217445     -0.21025155     -0.55373004
H           0.21470928      0.78612980     -1.05084256
C          -0.55742197     -1.21865073     -1.49896718
H           0.16544670     -2.00043378     -1.82074211
H          -1.44662551     -1.70025403     -1.05464975
O          -0.73021504     -1.41165230      1.38982003
H           0.15974721     -1.83571986      1.43523805
O          -0.89679166     -0.51468229     -2.70296913
H          -1.82386552     -0.18891808     -2.66343828
O           1.42452776     -0.80765122     -0.31956676
C           2.53468858      0.01781411     -0.18308483
C           2.53236295      1.40775526      0.11117075
C           3.74234287     -0.66496618     -0.35581273
C           3.74437039      2.10088722      0.17823225
C           4.94584123      0.04206778     -0.27680425
H           3.73110290     -1.73656946     -0.57521034
C           4.94514634      1.41586675     -0.03290862
H           3.75047803      3.17956502      0.37719616
H           5.88804333     -0.48977078     -0.44468367
H           5.88367879      1.96759205     -0.02986189
O           1.28930717      1.96451628      0.29485116
C           1.20787755      3.38267100      0.62133521
H           1.75014941      3.99202489     -0.11049302
H           0.12254032      3.55048378      0.56950624
H           1.60013512      3.55086054      1.63039156
C           6.29932104      3.31834490      2.44574737
H           5.66956575      2.40635370      2.50221877
H           6.36870701      3.64761012      1.38803731
C           5.72089545      4.39992984      3.36076684
H           4.60224021      4.45223228      3.17276384
H           5.85709042      4.11806963      4.42491783
C           5.48394234      6.79113737      3.91293230
H           5.88500621      7.81218213      3.82096439
H           4.43731384      6.82094180      3.50882656
H           5.42008885      6.53110610      4.97881411
C           6.27138790      6.16986551      1.67575567
H           6.54410624      7.21481449      1.50107901
H           6.89915786      5.52145677      1.05243735
H           5.16899926      6.04804487      1.28564364
C           7.73948728      5.82427836      3.62803754
H           8.24758641      6.75909947      3.34668888
H           7.79641650      5.71439610      4.72133753
H           8.31823985      4.97544226      3.19108660
N           6.31107712      5.79183494      3.12995276
O           7.64886759      3.01409678      2.81386765
H           7.65991802      2.23275561      3.44052839
Cl          3.33888234      5.54810561      1.53633019
C           2.02512216     -0.20747004     -4.10091411
H           1.37908042      0.05564546     -3.24157024
H           1.93159542      0.57816701     -4.87438103
C           1.67260271     -1.59664424     -4.67102642
H           2.14838502     -1.74587948     -5.66945980
C           2.02702453     -2.77663309     -3.73712181
H           1.14505200     -3.42009036     -3.56846786
H           2.84675595     -3.38989634     -4.15916949
O           0.27978759     -1.65937920     -4.98060164
H          -0.26769274     -1.32015473     -4.22099107
O           3.39694332     -0.14744669     -3.71590107
H           3.56817563     -0.85368195     -3.02795167
O           2.57608319     -2.36398743     -2.47841245
H           1.88751895     -1.93612679     -1.89785490
C           6.26895937     -1.41874270      3.26362594
H           5.51873359     -0.99572574      2.57048472
H           5.79381187     -1.60341226      4.24419366
C           7.51882469     -0.52533421      3.39024626
H           8.31048908     -1.04889030      3.96900709
C           8.05792402     -0.03629670      2.03033658
H           7.61874504      0.93810324      1.74335851
H           9.16116102      0.05549814      2.04095715
O           7.12239257      0.67476168      4.10291697
H           7.27486312      0.56598576      5.06140253
O           6.67545168     -2.71181595      2.81947382
H           7.17886953     -2.60946102      1.96031177
O           7.80332851     -1.03310763      1.03313072
H           6.97631717     -0.80111919      0.51626879
          93
 Energy =     -0.95725738 a.u.  #Cluster:   41
C          -3.04151061      2.53555204      0.30899085
C          -1.80502855      1.94819766      0.59285633
C          -1.73138114      0.61442173      1.01292564
C          -2.89261766     -0.16320298      1.15274012
C          -4.12390549      0.41696218      0.86591057
C          -4.20098629      1.77685594      0.45389110
H          -3.11474245      3.57423252     -0.01592282
H          -0.89172565      2.54007941      0.48977359
H          -2.80413977     -1.19854445      1.49220101
O          -5.40239735      2.37948427      0.17749139
H          -6.15661921      1.75429010      0.37718082
O          -5.36227204     -0.19800631      0.89284589
C          -5.45934449     -1.45893376      1.60019270
H          -6.54058718     -1.64778633      1.57276278
H          -4.91350689     -2.23491821      1.05445887
H          -5.09421919     -1.35155670      2.62649635
C          -0.37845914      0.00836379      1.28567263
H           0.21230693      0.63047604      2.00798037
C           0.41549320     -0.17737228     -0.03632771
H           0.62416798      0.79674282     -0.53103318
C          -0.25490473     -1.17458452     -0.99476094
H           0.49133012     -1.69060301     -1.63005189
H          -0.87215054     -1.91812969     -0.45401911
O          -0.58557104     -1.28161034      1.88911732
H           0.29073758     -1.74080855      1.93947576
O          -1.08819879     -0.47898838     -1.93747714
H          -1.75407392      0.07846520     -1.46662417
O           1.65021936     -0.85728030      0.31195335
C           2.78271865     -0.10219283      0.57559209
C           2.83462240      1.25029038      0.99691451
C           3.96348066     -0.84994927      0.45798840
C           4.06590505      1.82180854      1.33195188
C           5.18426177     -0.26869633      0.80339170
H           3.90319164     -1.88391124      0.11767364
C           5.22955785      1.05168159      1.25372487
H           4.11941019      2.85391155      1.69152579
H           6.11045567     -0.84827340      0.73026779
H           6.19076096      1.49456468      1.55595988
O           1.62224956      1.91897871      1.04055016
C           1.61960784      3.26299732      1.59193027
H           2.01727456      3.95524191      0.84520065
H           0.55296493      3.43295117      1.77658736
H           2.19621598      3.31505753      2.52887590
C           8.13866413      3.30601199      0.04456177
H           9.13771468      3.07772429     -0.37539895
H           8.08518887      4.37785832      0.31404597
C           6.99783040      2.93633880     -0.95610981
H           6.54440117      1.97936765     -0.56964051
H           6.19342554      3.69737653     -0.91363614
C           6.21663144      2.40410418     -3.23828718
H           6.48203278      2.20994041     -4.29169627
H           5.69553281      1.50067498     -2.85683697
H           5.47967660      3.22709863     -3.22597736
C           8.40517816      1.56433037     -2.49871815
H           8.80143130      1.43902221     -3.51586205
H           9.26390158      1.67893141     -1.79800260
H           7.93040756      0.60856025     -2.17786193
C           8.10220246      3.97009931     -2.93509034
H           8.37197534      3.86146773     -3.99992733
H           7.44465325      4.85282574     -2.84104077
H           9.03311130      4.19692859     -2.38060831
N           7.43930392      2.72080967     -2.39731310
O           7.91059989      2.56132524      1.18874932
H           8.35755384      1.39347807      1.01616358
Cl          8.75489866      0.12363417      0.30675770
C           0.34216526      2.37422120     -6.16468270
H          -0.60270317      2.86439928     -5.86721668
H           0.73449318      2.85163507     -7.07952938
C           0.17479702      0.85189288     -6.34619258
H           1.15804132      0.37231302     -6.54823153
C          -0.51208655      0.19283625     -5.13425087
H          -1.47857604      0.67117443     -4.89584131
H          -0.66490778     -0.89084084     -5.28104204
O          -0.68679730      0.71761528     -7.48658366
H          -0.66453970     -0.19836121     -7.82760551
O           1.33438346      2.62807936     -5.16452768
H           1.16574639      2.01385181     -4.38808415
O           0.41073433      0.38020804     -4.04408696
H          -0.06539248      0.19264755     -3.17593788
C           5.28557105      3.88690242      3.84695668
H           5.34529430      4.23142466      4.89344908
H           5.24621772      2.78060239      3.83096511
C           6.42938981      4.42915405      2.96840453
H           6.25774088      4.15514419      1.90063137
C           6.59209759      5.95792262      3.10445429
H           6.62321256      6.28505955      4.15513078
H           7.49643641      6.31330309      2.58381146
O           7.65292554      3.87607610      3.43286088
H           8.03294818      3.26674490      2.69473890
O           4.02246309      4.30445852      3.29507405
H           4.10743144      5.24544870      2.98049209
O           5.42652257      6.51315851      2.44296312
H           5.29749273      7.44049651      2.71463943
          93
 Energy =     -0.95324328 a.u.  #Cluster:   42
C          -3.90285734      2.66412980     -0.57689101
C          -2.72377450      1.98163367     -0.26373081
C          -2.74782151      0.85914949      0.57425225
C          -3.95412313      0.40110593      1.12834716
C          -5.13061801      1.06890848      0.80965929
C          -5.10868329      2.20048082     -0.04644388
H          -3.89640252      3.52675226     -1.24092932
H          -1.77690363      2.32147328     -0.70967280
H          -3.95034075     -0.46577905      1.79227261
O          -6.26687136      2.86303888     -0.37413253
H          -7.04705480      2.37947829      0.02777697
O          -6.39721669      0.75277135      1.28499226
C          -6.67632545     -0.66864720      1.39009729
H          -7.76564548     -0.68940068      1.55016311
H          -6.40766788     -1.18615315      0.46602908
H          -6.14754441     -1.08263573      2.25204791
C          -1.46828464      0.10265984      0.82983456
H          -0.64273848      0.77799370      1.16884440
C          -1.04883470     -0.66349919     -0.45088389
H          -0.81262417      0.05054264     -1.28007821
C          -2.07003670     -1.72081469     -0.88629934
H          -1.58014169     -2.57464799     -1.38843653
H          -2.68849207     -2.08148489     -0.03759438
O          -1.71668326     -0.84373554      1.88758612
H          -0.93005617     -1.43438738      1.96398330
O          -3.01931777     -1.18243911     -1.83070266
H          -2.84318922     -0.21837951     -2.00887881
O           0.12743818     -1.45464976     -0.09737817
C           1.36409333     -0.99958608     -0.51791360
C           1.74621919      0.36282095     -0.65718323
C           2.29694401     -2.01644376     -0.73916394
C           3.04896323      0.68162381     -1.04823537
C           3.60478451     -1.68205098     -1.10977043
H           1.99329203     -3.05508940     -0.61533643
C           3.97381245     -0.34615287     -1.27012599
H           3.34865955      1.72016576     -1.16201932
H           4.33310726     -2.47367273     -1.27225362
H           4.99186657     -0.09424182     -1.56138729
O           0.78105880      1.28541499     -0.33159394
C           0.83528314      2.58401738     -0.98322322
H           1.18064911      2.50606467     -2.01846791
H          -0.23444396      2.87265948     -0.98177322
H           1.45407205      3.24662783     -0.37746407
C          -1.96544966     -1.08648230     -4.49628645
H          -1.18102295     -1.10286956     -3.71468367
H          -2.54163612     -0.13735215     -4.44816317
C          -1.41771687     -1.37264222     -5.89559074
H          -0.89316511     -2.35415927     -5.90245198
H          -2.29147898     -1.48633967     -6.60086641
C          -0.22911147     -0.59845738     -7.88549044
H           0.37112525      0.19038830     -8.36643110
H           0.30297861     -1.55484534     -8.01081392
H          -1.18581932     -0.67665816     -8.44474336
C           0.81894684     -0.30589195     -5.66621830
H           1.53215281      0.43008019     -6.07063945
H           0.65795394     -0.01133087     -4.59671760
H           1.28866951     -1.29971627     -5.67268519
C          -1.11316773      1.07136765     -6.30485601
H          -0.52411408      1.85730338     -6.78601100
H          -2.14139090      1.10534411     -6.67588247
H          -1.15781719      1.40502558     -5.15703925
N          -0.49036718     -0.28586193     -6.42331610
O          -2.90471204     -2.15261343     -4.24642252
H          -3.16971047     -2.07136439     -3.25374867
Cl         -0.95596473      1.52567538     -3.33671077
C          -2.66891022     -4.65422647     -6.42735094
H          -1.72646645     -4.32924406     -6.90244872
H          -2.87276569     -5.70789835     -6.70541982
C          -3.84825143     -3.73427214     -6.79683718
H          -3.95895909     -2.91855544     -6.03244096
C          -3.74299276     -3.15880442     -8.21906288
H          -2.90444963     -3.57166542     -8.80587634
H          -4.68760203     -3.31950732     -8.77609360
O          -5.07334116     -4.48577028     -6.83208973
H          -5.22051571     -4.92142081     -5.96065277
O          -2.47675626     -4.70976718     -5.01871511
H          -2.48113134     -3.78015622     -4.62295860
O          -3.44095426     -1.75204417     -8.14926980
H          -4.25682567     -1.24766725     -7.92639169
C          -9.69650664     -1.62582623      3.44878006
H         -10.00660015     -2.48184371      4.07225349
H          -8.83948126     -1.11968939      3.92987080
C         -10.85949152     -0.65550046      3.16449718
H         -10.56276331      0.08868328      2.39137660
C         -12.16168232     -1.37804785      2.76570336
H         -12.62367345     -1.87952104      3.63170246
H         -12.88790829     -0.67716168      2.31350638
O         -11.21832349      0.01223796      4.38550493
H         -10.61082435      0.76262960      4.55384616
O          -9.17324411     -2.10612189      2.20668200
H          -9.93680026     -2.42218039      1.64313757
O         -11.82686566     -2.32448399      1.72797130
H         -12.15923870     -3.21377834      1.96282209
          93
 Energy =     -0.95230197 a.u.  #Cluster:   43
C          -2.69475214      3.79174121      2.08415183
C          -1.49859407      3.10696368      2.31485681
C          -1.38062826      1.73783321      2.02594705
C          -2.46754508      1.03890815      1.48340919
C          -3.66283911      1.71164851      1.26312387
C          -3.78216274      3.09313965      1.55286038
H          -2.78934245      4.85611132      2.29333720
H          -0.64498271      3.64711307      2.72936704
H          -2.37923128     -0.03711137      1.25137959
O          -4.96056241      3.77033703      1.37268186
H          -5.61158454      3.19548326      0.87164494
O          -4.84723172      1.12302154      0.83111139
C          -4.70763814      0.01378683     -0.11101820
H          -5.69627310     -0.02086388     -0.57847515
H          -3.91597912      0.21333936     -0.84335122
H          -4.48102830     -0.90459525      0.44307132
C          -0.07246415      1.04979402      2.33641439
H           0.78757533      1.69994819      2.02995901
C           0.11167510     -0.34586303      1.70833490
H          -0.32844787     -0.38779251      0.68222530
C          -0.38167451     -1.55321402      2.54201587
H           0.27309254     -2.42586214      2.33808146
H          -0.37772960     -1.33504890      3.62433394
O          -0.05744347      0.96620051      3.78925371
H           0.80499833      0.59635657      4.07755353
O          -1.69656962     -1.86503595      2.19672809
H          -1.83446783     -2.08111353      0.99712009
O           1.55302751     -0.59316636      1.62455630
C           2.27491348     -0.09357551      0.56917041
C           1.84471260      0.78915571     -0.44942605
C           3.61346528     -0.52565297      0.59076027
C           2.74787481      1.22326550     -1.42704907
C           4.50282571     -0.07560510     -0.38268444
H           3.93003664     -1.22381827      1.37131025
C           4.07627212      0.79362982     -1.39107659
H           2.40429594      1.90880030     -2.20027525
H           5.55129331     -0.41272122     -0.35001793
H           4.78147496      1.14429527     -2.14131337
O           0.56035822      1.31514515     -0.39867773
C          -0.29976592      0.94898798     -1.51488516
H          -0.43930900     -0.14093091     -1.54004098
H          -1.23729645      1.45214578     -1.24764799
H           0.10883277      1.32813924     -2.45184461
C          -5.80677065      1.37091319      4.24068382
H          -6.59037488      1.94664694      4.77895105
H          -5.00286396      2.06124122      3.92219245
C          -5.30099880      0.22993807      5.15015036
H          -5.21289273      0.60014167      6.19406487
H          -6.08353980     -0.56899236      5.15090558
C          -3.56197951     -1.44494645      5.71518589
H          -2.62531372     -1.94332880      5.38257353
H          -3.37851103     -1.02110900      6.71433815
H          -4.32658943     -2.23472650      5.80665684
C          -2.89975369      0.67625399      4.67838436
H          -1.92894137      0.27847626      4.27240214
H          -3.16652834      1.51133563      4.00201422
H          -2.68866450      1.09592244      5.67124199
C          -4.12030535     -1.03651553      3.36906164
H          -4.72448586     -1.95245857      3.40228766
H          -4.57057022     -0.36205148      2.61917376
H          -3.09167279     -1.34322522      2.94046689
N          -3.97214318     -0.38292383      4.71226684
O          -6.49045829      0.82567855      3.12263711
H          -5.88511798      0.77859991      2.31915055
Cl         -2.18653040     -1.99694557     -0.49379751
C           7.57272456     -0.27904995      4.10766951
H           8.08723264     -1.25223894      4.19426362
H           7.00730470     -0.07996830      5.03632433
C           6.66094613     -0.21727632      2.86599810
H           6.23502520      0.80306190      2.73855950
C           7.38986597     -0.66199796      1.58328414
H           7.91142310     -1.62422262      1.71018656
H           6.69822844     -0.72918791      0.71070472
O           5.62272859     -1.16887745      3.13347856
H           4.80937851     -0.95689610      2.60557480
O           8.54948653      0.76356903      4.05170545
H           8.89389118      0.83646263      3.11848576
O           8.35030770      0.38681888      1.32655925
H           8.94709224      0.11397821      0.60135493
C           5.89566354     -2.82204474     -1.80606979
H           5.10228155     -3.35328065     -1.24529380
H           5.45034405     -1.96783702     -2.34959219
C           6.63751470     -3.78901934     -2.75420034
H           7.07489854     -3.24764299     -3.62265175
C           7.71867203     -4.64984001     -2.07277561
H           7.71021429     -5.67682642     -2.48729519
H           8.72544713     -4.20285450     -2.18082075
O           5.69610186     -4.76275157     -3.24561143
H           5.02524447     -4.34582710     -3.82236456
O           6.79974380     -2.20702780     -0.88568183
H           7.25423962     -2.93263299     -0.35718347
O           7.54815843     -4.70819130     -0.64625416
H           6.75537248     -5.25165113     -0.42647943
          93
 Energy =     -0.94661927 a.u.  #Cluster:   44
C          -3.30861989      3.36951074     -0.32760680
C          -2.19679823      2.65626558      0.14848159
C          -2.35732670      1.39205890      0.71703420
C          -3.63000110      0.80388901      0.82511469
C          -4.73531573      1.50651049      0.36278936
C          -4.57206644      2.79857690     -0.21827974
H          -3.20012853      4.35226449     -0.78375286
H          -1.20079202      3.09999272      0.06276126
H          -3.72646195     -0.18257805      1.29049757
O          -5.64702087      3.52532436     -0.65934773
H          -6.48096757      2.96735500     -0.62846186
O          -6.05586865      1.13026907      0.43776198
C          -6.35424090     -0.24391712      0.80675313
H          -7.45265152     -0.20543199      0.90726372
H          -6.02806911     -0.91768010      0.01331249
H          -5.91243465     -0.49179957      1.77803307
C          -1.14330743      0.64344018      1.20894438
H          -0.43347569      1.31629141      1.75368367
C          -0.40286390     -0.05682276      0.04191067
H          -0.04578825      0.68238192     -0.70894020
C          -1.20765378     -1.18129472     -0.63698774
H          -0.53058554     -1.93432720     -1.08657359
H          -1.90944058     -1.67104408      0.06270781
O          -1.61020583     -0.33676249      2.15820254
H          -0.87462211     -0.96882147      2.34426098
O          -1.91122164     -0.64396293     -1.75767658
H          -2.63526474     -0.04963351     -1.45334531
O           0.71387603     -0.77016048      0.65691430
C           1.97860185     -0.22424976      0.57473937
C           2.30199129      1.15681230      0.52426485
C           2.99987926     -1.18193030      0.62183866
C           3.63945136      1.55943991      0.51912116
C           4.33617629     -0.76508140      0.62521415
H           2.73555272     -2.23842447      0.65490522
C           4.65193102      0.59137451      0.57155310
H           3.90327517      2.61307196      0.48175780
H           5.12928451     -1.51208339      0.66488033
H           5.69393927      0.90986684      0.57178206
O           1.21770837      2.01660533      0.50877744
C           1.45347080      3.39325561      0.12301853
H           1.95616599      3.44360640     -0.84728416
H           0.42170242      3.77766229      0.05836049
H           2.01959112      3.91012944      0.90312369
C          -4.34285026      3.02749926      6.82638757
H          -5.24939747      3.22567485      7.44714399
H          -3.95432655      2.01790393      7.05236369
C          -4.56662725      3.25557449      5.32481710
H          -4.74723450      4.34103665      5.14838244
H          -3.62654991      3.01075914      4.77400460
C          -5.71398440      2.68708563      3.23915341
H          -6.48607583      2.05252892      2.73334869
H          -5.93364145      3.73416611      2.99462041
H          -4.75232541      2.40551318      2.77485935
C          -7.03231180      2.88105965      5.30933072
H          -7.86513627      2.28766620      4.85242910
H          -7.09736351      2.69907769      6.39311552
H          -7.23033303      3.94311222      5.11019284
C          -5.51658710      0.98400897      4.98676494
H          -6.49879100      0.35643557      4.41637641
H          -4.63607646      0.54636146      4.52750735
H          -5.62676591      0.67705915      6.02075924
N          -5.70538487      2.43076099      4.73222123
O          -3.41979705      4.02867146      7.27277480
H          -2.51350180      3.84790168      6.93237771
Cl         -7.84560055     -0.04801358      3.63519925
C          -5.50549511      3.34103625     10.21062804
H          -5.28899523      2.30999292     10.54164479
H          -5.62609285      3.35664324      9.10749322
C          -4.42864243      4.34032441     10.67970403
H          -4.73642629      5.38434372     10.44365212
C          -4.07717551      4.18752700     12.17276838
H          -3.61321666      3.20819857     12.37997150
H          -3.40437644      4.99759300     12.50756545
O          -3.18453098      4.04653635     10.03275973
H          -3.27796783      4.15167407      9.04545233
O          -6.78596925      3.73633228     10.70553083
H          -6.68747850      3.96334821     11.67535694
O          -5.31364714      4.32428232     12.90767394
H          -5.31506276      3.68181340     13.69106148
C          -4.72087183      6.35417858     15.45169688
H          -3.67246453      6.15340366     15.17219526
H          -4.74972411      7.27122396     16.07374126
C          -5.39485049      5.16663159     16.17191277
H          -6.41632747      5.00789629     15.74689735
C          -4.58050144      3.86223689     16.15065788
H          -3.55168028      3.98516551     15.76658767
H          -4.54216849      3.40649349     17.16048453
O          -5.51533195      5.45098516     17.57644209
H          -6.11748386      6.21129879     17.72203220
O          -5.47377111      6.70329922     14.29547712
H          -5.46998766      5.94153116     13.63845989
O          -5.16420913      2.92959548     15.22001868
H          -6.01233657      2.57501652     15.56893499
          93
 Energy =     -0.94636186 a.u.  #Cluster:   45
C          -3.34293764      3.40241943     -0.02466243
C          -2.07711826      2.96344961      0.36482712
C          -1.92001983      2.08922347      1.45427206
C          -3.04086523      1.58027348      2.11780730
C          -4.30324945      2.05297345      1.76340189
C          -4.45698581      2.96281868      0.70090704
H          -3.47158040      4.06237784     -0.88175524
H          -1.18981589      3.28951818     -0.20408625
H          -2.93868464      0.85432520      2.92746984
O          -5.69672463      3.48773565      0.38844076
H          -6.39879750      3.01803495      0.93336050
O          -5.43713467      1.76529269      2.52798797
C          -5.91267613      0.39454483      2.39792552
H          -6.86400998      0.42294465      2.94070415
H          -6.05407185      0.13852981      1.34382049
H          -5.19994179     -0.28784066      2.87175895
C          -0.53930079      1.75080435      1.96498119
H           0.09047253      2.68348388      2.02994771
C           0.18528635      0.70738287      1.12937447
H           0.35913948      1.15148913     -0.00841478
C          -0.46631480     -0.66695258      1.01137500
H           0.27851888     -1.41381909      0.67294435
H          -0.94653359     -1.01986444      1.93976116
O          -0.62581781      1.38618831      3.36592805
H          -0.97123593      0.47122092      3.46371648
O          -1.54319518     -0.62024226      0.07328492
H          -1.24657592     -0.17173350     -0.76867264
O           1.47717223      0.44260971      1.77176651
C           2.60961099      0.89894168      1.12299040
C           2.88893361      2.25109241      0.83274177
C           3.58749498     -0.08026823      0.88729563
C           4.12521218      2.61316207      0.28129974
C           4.82222473      0.29111161      0.35572764
H           3.35318905     -1.12280155      1.10481501
C           5.08881132      1.63114274      0.04874958
H           4.31696901      3.65279711      0.02549926
H           5.57705897     -0.47076148      0.16157416
H           6.04818275      1.90869325     -0.38541837
O           1.97807050      3.24317571      1.19089869
C           1.48508300      4.05388444      0.07599122
H           1.92392189      3.74933952     -0.88546654
H           0.39994871      3.86096757      0.02939245
H           1.73195472      5.08249224      0.33497807
C           2.92294261      1.26270716      4.79986384
H           3.85625162      1.43744668      4.23160400
H           3.12515779      1.30170824      5.88626160
C           1.78056553      2.18112109      4.34890651
H           1.56698026      1.95504912      3.25554947
H           0.82757382      1.87233875      4.85861717
C           0.83553755      4.38780219      3.84366573
H           0.98188944      5.47535440      3.81428229
H           0.70655492      4.01959219      2.79226131
H          -0.12339323      4.17755761      4.37469609
C           3.27803232      4.10979103      3.85844088
H           3.44595695      5.19323680      3.96121814
H           4.15523252      3.58975110      4.27473745
H           3.24627538      3.88550326      2.76183375
C           2.00771356      4.03315427      5.98382845
H           2.20936314      5.10409817      6.14118283
H           1.01597295      3.81699750      6.44988302
H           2.76639044      3.45637422      6.53701068
N           1.99021407      3.67239813      4.51598708
O           2.49394307     -0.07927333      4.58954482
H           2.14101598     -0.17936748      3.65729125
Cl          0.36943108      1.71056410     -1.62408945
C          -2.82594220      2.94920703      7.50345892
H          -3.53831394      3.79123766      7.57460841
H          -2.14309069      2.96915426      8.37380336
C          -2.05108814      2.95115013      6.17190995
H          -1.39819220      2.04979014      6.08317905
C          -2.97089674      3.07842419      4.94298809
H          -3.58927563      3.99040553      4.95747978
H          -2.37385174      3.03735996      4.00710359
O          -1.10830504      4.04348250      6.15219691
H          -1.55962493      4.89512073      6.32772201
O          -3.53754456      1.72381954      7.64913906
H          -4.02543805      1.52866192      6.79358933
O          -3.82200720      1.91767680      4.99867695
H          -4.53595538      1.98338053      4.29963739
C          -4.32617868      6.91149049     -0.61699903
H          -4.37717221      6.02276551     -1.27238169
H          -3.42291020      6.85173296      0.01782275
C          -5.59979605      7.09727943      0.23230728
H          -5.58764383      8.09094584      0.74316876
C          -6.88471939      6.94027772     -0.60921275
H          -6.90318610      5.99989257     -1.18421048
H          -7.78598859      7.01111843      0.02636781
O          -5.63001522      6.17063668      1.31000251
H          -5.62864310      5.23119534      0.97803355
O          -4.11087849      8.06883162     -1.42932290
H          -4.98444279      8.35363841     -1.81791883
O          -6.87369050      8.07226122     -1.50765471
H          -7.46661845      7.90280346     -2.26643702
          93
 Energy =     -0.94510060 a.u.  #Cluster:   46
C          -4.94199001      2.58136424      0.40227336
C          -3.61019405      2.20442939      0.59746286
C          -3.29852235      0.95102069      1.14758855
C          -4.31121107      0.08098431      1.57997235
C          -5.64082385      0.46389955      1.40553487
C          -5.95056713      1.69097752      0.76666429
H          -5.20240675      3.54248672     -0.04395158
H          -2.81342222      2.88503388      0.29517009
H          -4.03012132     -0.87518353      2.02836058
O          -7.24750542      1.98010600      0.38436672
H          -7.89979177      1.51156589      0.98065804
O          -6.76972092     -0.24950999      1.75538133
C          -6.56096428     -1.52199016      2.41784698
H          -7.58958030     -1.85897423      2.60242122
H          -6.03256386     -2.20373593      1.74194220
H          -6.01971565     -1.37303653      3.35820490
C          -1.85746986      0.50336595      1.19591830
H          -1.19493533      1.27448734      1.66134357
C          -1.35215571      0.14678688     -0.23062276
H          -1.22530303      1.05903630     -0.85069017
C          -2.21498473     -0.90021184     -0.95067543
H          -1.60561935     -1.49744571     -1.67059146
H          -2.73158762     -1.58052108     -0.25148899
O          -1.79468501     -0.66819510      2.02793831
H          -0.90852992     -1.09936225      1.88573648
O          -3.18035084     -0.22139617     -1.77614695
H          -3.89150116      0.17571917     -1.22633934
O          -0.07396256     -0.51278287     -0.00030869
C           1.04806746      0.11813638     -0.52916401
C           1.42939071      1.43891407     -0.17120718
C           1.85272686     -0.64755856     -1.36652495
C           2.64571979      1.95947584     -0.61667604
C           3.08149788     -0.12158336     -1.80032294
H           1.51282023     -1.64162572     -1.69241696
C           3.47182725      1.16120619     -1.42277182
H           2.96087762      2.96234566     -0.35083997
H           3.71919661     -0.72572650     -2.44541157
H           4.42828621      1.56034151     -1.75914521
O           0.48899457      2.11546432      0.58408479
C           0.84877152      3.41549100      1.10893251
H           1.02157199      4.12203858      0.29243771
H          -0.05238921      3.67769740      1.67955295
H           1.71889042      3.33164150      1.76569619
C          -4.61354428     -2.56695956     -4.84125637
H          -4.85432979     -2.24803650     -5.87942189
H          -4.49144460     -3.67654063     -4.82539914
C          -3.40860648     -1.84817583     -4.24746067
H          -3.71252951     -1.32196293     -3.29527126
H          -2.63566189     -2.58889986     -3.88118212
C          -1.66788114     -0.12768812     -4.39632075
H          -1.06181391      0.55122253     -4.99481919
H          -2.08044491      0.39529589     -3.52163713
H          -0.89434471     -0.94140358     -3.95004540
C          -3.70864223      0.13465698     -5.73972674
H          -3.21784865      0.83749437     -6.43420468
H          -4.52904980     -0.35873069     -6.28676207
H          -4.15741708      0.73988073     -4.93127451
C          -2.06089086     -1.61618976     -6.31282918
H          -1.48345504     -0.94935665     -6.97125270
H          -1.32076244     -2.35381026     -5.90107787
H          -2.78445509     -2.17792955     -6.91577746
N          -2.71502446     -0.86149370     -5.17530315
O          -5.78909676     -2.36966433     -4.03142008
H          -5.84730008     -1.44362662     -3.69129927
Cl         -0.17288865     -2.55428374     -3.65339813
C          -9.35091714      1.49560078     -2.52357559
H          -9.14007706      2.35311501     -3.18976071
H          -9.38674076      1.84939882     -1.47836399
C          -8.34975996      0.33926062     -2.72326013
H          -8.65369939     -0.55827610     -2.14052976
C          -8.16241375     -0.02070400     -4.21429367
H          -7.85275524      0.85648317     -4.80732119
H          -7.42190931     -0.83839243     -4.34163849
O          -7.04475873      0.75539174     -2.30465034
H          -7.08229161      1.13623791     -1.38184378
O         -10.66642507      1.06573341     -2.93648047
H         -11.03812668      0.42804082     -2.28273517
O          -9.37087780     -0.55673801     -4.75386245
H         -10.13462506      0.02925680     -4.50404200
C         -14.89940068      3.18853528     -1.99245791
H         -14.96572998      2.09677340     -2.14423503
H         -15.84236989      3.55048721     -1.54354031
C         -14.54944386      3.93037710     -3.29805460
H         -14.36886438      5.00987045     -3.09574026
C         -13.34968078      3.29883476     -4.03294451
H         -13.55306749      2.25649808     -4.33095339
H         -13.07056277      3.89139654     -4.92295071
O         -15.62998794      3.77434751     -4.23384689
H         -16.35690740      4.39407615     -4.02464868
O         -13.90750592      3.46518302     -1.00004402
H         -13.00421060      3.42142930     -1.43326741
O         -12.24330549      3.36368332     -3.11132429
H         -11.69234899      2.53487248     -3.17191668
          93
 Energy =     -0.94080421 a.u.  #Cluster:   47
C          -3.36313838      2.51804627     -0.51472855
C          -2.23457315      1.69199290     -0.47774794
C          -2.35090838      0.30537617     -0.33220961
C          -3.62361868     -0.28573057     -0.22822953
C          -4.74964604      0.52718699     -0.26088650
C          -4.62493066      1.93213882     -0.39920026
H          -3.27606780      3.59626798     -0.62828791
H          -1.24543097      2.14654137     -0.58104212
H          -3.70273603     -1.37187926     -0.13895428
O          -5.73136665      2.74547153     -0.43443388
H          -6.55629583      2.18542033     -0.33395345
O          -6.06788099      0.07160246     -0.24358834
C          -6.37793943     -0.84490623      0.83750082
H          -7.44734278     -1.02924566      0.68696202
H          -5.79903159     -1.76675810      0.72879092
H          -6.18581673     -0.36660344      1.80223753
C          -1.14950558     -0.62328175     -0.24782935
H          -0.90863600     -0.82675775      0.83032465
C           0.12803603     -0.04683725     -0.92975191
H           0.03144978      1.02744310     -1.20537447
C           0.65160102     -0.87202417     -2.11867026
H           1.36119730     -0.30089246     -2.73998124
H           1.12438655     -1.81159707     -1.76397253
O          -1.53745362     -1.83770809     -0.84934864
H          -0.79499724     -2.78870158     -0.47368546
O          -0.42679023     -1.20526363     -2.99520871
H          -1.19549079     -1.57778439     -2.35538802
O           1.09328981     -0.12562043      0.17970374
C           2.38882924      0.23541156     -0.14816623
C           2.74187645      1.55514954     -0.51518041
C           3.37430678     -0.75247658     -0.03922762
C           4.06737558      1.86300531     -0.83506038
C           4.70241473     -0.42933414     -0.33241083
H           3.08188226     -1.76118815      0.26434686
C           5.04050100      0.86234726     -0.74779118
H           4.32065684      2.87418937     -1.15556999
H           5.47229225     -1.19568391     -0.24904921
H           6.07473416      1.10111911     -1.00762334
O           1.80299429      2.56914694     -0.66424026
C           1.11603846      2.90869637      0.57393284
H           1.82689842      3.36613433      1.26634666
H           0.36958627      3.63467653      0.23464330
H           0.65256270      2.01693254      1.01554156
C          -0.13991450     -2.46236777     -5.30440245
H           0.10884138     -1.39831604     -5.48357229
H           0.47164276     -2.81179825     -4.44102403
C          -1.64873782     -2.62002866     -5.07008087
H          -1.98636629     -1.75928853     -4.42908794
H          -2.20070797     -2.54807841     -6.03204917
C          -3.53034740     -3.91951694     -4.15089945
H          -3.86381418     -4.83731278     -3.63886654
H          -3.83276333     -3.06288053     -3.51884661
H          -4.08296582     -3.85401355     -5.11274112
C          -1.34126304     -4.05391033     -3.04263112
H          -1.64801262     -4.94943520     -2.47829973
H          -0.23752883     -4.09209161     -3.13953182
H          -1.55353000     -3.16349984     -2.38920426
C          -1.66434618     -5.10487160     -5.25178546
H          -1.82493582     -6.06240628     -4.73488652
H          -2.25872477     -5.10808485     -6.18908881
H          -0.59539555     -5.05157553     -5.55665227
N          -2.03195190     -3.92936221     -4.37734839
O           0.29478124     -3.28198741     -6.39408754
H           0.07522692     -2.87475486     -7.25297526
Cl          0.02778220     -4.04496551     -0.41316676
C           9.33961153      4.64157970     -0.52034451
H           9.59568219      3.66680189     -0.06956325
H          10.15860039      5.35642054     -0.32489887
C           7.97833391      5.17199996     -0.02826205
H           7.66976480      6.05780902     -0.62635023
C           6.87578697      4.09505133     -0.02334410
H           7.05202780      3.34186993      0.76275939
H           5.87580399      4.54759175      0.11473777
O           8.09271830      5.52511789      1.36147277
H           8.49545868      6.41010877      1.45842837
O           9.31478664      4.51570911     -1.94384384
H           8.47825851      4.03224950     -2.20158958
O           6.87509200      3.49230283     -1.33465035
H           6.82026947      2.50613444     -1.25166707
C          -4.71840837     -5.79528279     -7.31510684
H          -4.01767559     -6.51375448     -7.77829868
H          -4.99760801     -6.15090754     -6.30610559
C          -5.96219021     -5.55852770     -8.19244003
H          -6.62552544     -4.78671600     -7.74155031
C          -5.59392720     -5.17911857     -9.64230622
H          -4.90307882     -5.90855018    -10.09887013
H          -6.48998416     -5.06843633    -10.27813123
O          -6.61204886     -6.83422296     -8.23376409
H          -7.57487256     -6.73154322     -8.38706136
O          -4.02652788     -4.55792199     -7.09231530
H          -4.06009425     -4.00886573     -7.93352890
O          -4.95335994     -3.88808544     -9.52662693
H          -4.46832561     -3.67838387    -10.35255307
          93
 Energy =     -0.93651974 a.u.  #Cluster:   48
C          -2.73190669      3.03248731     -0.10524783
C          -1.66166223      2.23480911      0.31045763
C          -1.88707142      0.96415105      0.85607253
C          -3.19575941      0.47540310      1.02154779
C          -4.26112027      1.27006674      0.62356493
C          -4.02851320      2.54724502      0.04294741
H          -2.55423720      4.01864693     -0.54846355
H          -0.63847198      2.61059215      0.20041854
H          -3.33888258     -0.50629531      1.48180969
O          -5.06986197      3.33925035     -0.39656496
H          -5.94016821      2.87832089     -0.23252371
O          -5.61070581      0.97739574      0.73296600
C          -5.96170915     -0.39417821      1.03708106
H          -7.05840957     -0.36369338      0.98182305
H          -5.54320958     -1.06842762      0.28472661
H          -5.62528876     -0.64956213      2.04673843
C          -0.70541902      0.11135912      1.24256819
H           0.05406067      0.70152002      1.81769267
C          -0.03461694     -0.52637326     -0.00090402
H           0.32211644      0.24932843     -0.71502610
C          -0.90071879     -1.56841013     -0.72774494
H          -0.26951346     -2.29887012     -1.27105147
H          -1.58523924     -2.09807377     -0.03848069
O          -1.18774828     -0.93025839      2.11333147
H          -0.44816530     -1.56599548      2.26825018
O          -1.64820439     -0.93194406     -1.76666097
H          -2.30258068     -0.30748533     -1.38203169
O           1.07080207     -1.31645931      0.52350680
C           2.35094090     -0.79331191      0.46722816
C           2.70670245      0.58131434      0.40455981
C           3.35189971     -1.76854220      0.54037972
C           4.05280298      0.95005300      0.39076680
C           4.69318294     -1.38509376      0.54582654
H           3.06777603     -2.81727313      0.58984953
C           5.04260477     -0.03061366      0.46511526
H           4.35038006      2.00068684      0.33032236
H           5.47061408     -2.14152254      0.60881570
H           6.08845638      0.26842705      0.46066242
O           1.64932555      1.47603146      0.38795407
C           1.93976431      2.83483835     -0.02625782
H           2.40806072      2.84161101     -1.01573285
H           0.92802497      3.27232069     -0.05080251
H           2.57787719      3.32578111      0.71376579
C           6.42550520      9.40353771      2.12589333
H           7.38724758      8.94563539      1.83446903
H           5.96149206      9.88517554      1.24383053
C           5.46396226      8.41921210      2.81125793
H           5.58042156      8.53374508      3.91541728
H           4.41536203      8.71442664      2.58061107
C           4.60355336      6.11842958      3.02788154
H           4.73522817      5.04661465      2.73643854
H           4.62342379      6.17171813      4.12366616
H           3.59847582      6.40183212      2.67622273
C           7.02679807      6.48366175      2.89514152
H           7.17091636      5.40799761      2.62627979
H           7.86070944      7.02727059      2.42639355
H           7.11612045      6.57671133      3.98625832
C           5.61967574      6.84045906      0.91618962
H           5.75595391      5.59054906      0.63177808
H           4.66257187      7.10817260      0.48137389
H           6.43663548      7.30497655      0.37535134
N           5.68503836      6.96968065      2.39041702
O           6.63933608     10.43376336      3.09974478
H           7.62845653     10.62913881      3.20271783
Cl          5.94150495      3.98824153      0.74389216
C          -3.09588075      7.48305143     -3.03988139
H          -3.68334212      7.11638552     -3.89755677
H          -2.05701066      7.67899670     -3.36646410
C          -3.13512191      6.51346878     -1.84235703
H          -2.58602472      6.94690131     -0.96911188
C          -4.56990365      6.12236547     -1.44256734
H          -5.16688387      5.75435457     -2.29135218
H          -4.57010502      5.36013113     -0.63160170
O          -2.38515535      5.33507305     -2.14113149
H          -2.77907090      4.83521343     -2.88900678
O          -3.59369130      8.76633489     -2.65952311
H          -4.38786681      8.64686663     -2.06405960
O          -5.14626197      7.34338646     -0.92636344
H          -6.10657777      7.21792351     -0.78454499
C           6.86908119     13.32506993      1.59281324
H           7.00587954     12.66780681      0.71675058
H           6.60620712     14.33843314      1.22924403
C           8.09637533     13.35336630      2.52888705
H           7.76087203     13.21129333      3.58384799
C           9.19738553     12.34665352      2.15791987
H           9.02545766     11.84955334      1.18440841
H          10.19455798     12.83477969      2.14954993
O           8.77010817     14.61901520      2.43159128
H           8.17685717     15.34581014      2.72479264
O           5.71872408     12.91464134      2.32479193
H           5.84216741     11.97507162      2.65528369
O           9.20396386     11.24345743      3.08698347
H           9.54829373     11.52931526      3.96316748
          93
 Energy =     -0.92235971 a.u.  #Cluster:   49
C          -2.92254987      2.09131886     -0.74289662
C          -1.89284112      1.30210435     -1.22464266
C          -1.78955810     -0.08803395     -0.88483879
C          -2.75681781     -0.63143825      0.02048681
C          -3.77259932      0.17427257      0.49943772
C          -3.89201061      1.51976194      0.09024725
H          -2.99810287      3.14873149     -1.00202346
H          -1.13780485      1.73342770     -1.87551042
H          -2.64042989     -1.66001650      0.34439694
O          -4.99963461      2.28896929      0.46302975
H          -5.35919007      1.92697072      1.31837670
O          -4.78523882     -0.23050565      1.35790350
C          -4.43520325     -1.26181110      2.31677437
H          -5.30559739     -1.26434488      2.98225526
H          -4.31990189     -2.22075173      1.80532059
H          -3.51910885     -0.98771527      2.85273155
C          -0.82375537     -0.91226681     -1.46303386
H          -0.18930791     -1.15023872      0.62806656
C           0.43895062     -0.52353269     -2.09565657
H           0.66373057      0.56331578     -2.00354798
C           0.62267168     -1.02618912     -3.54387631
H           1.68524716     -1.12832686     -3.81918904
H           0.09374943     -1.98689120     -3.70544319
O          -1.08972947     -2.29996538     -1.45941079
H          -0.35056303     -2.75314584     -0.98319795
O          -0.04154089     -0.10499014     -4.43425334
H           0.52853034      0.66930711     -4.61398074
O           1.52618228     -1.32369775     -1.45608721
C           2.30046013     -0.84959238     -0.44165867
C           2.29203970      0.43095092      0.16045857
C           3.22443428     -1.81577589      0.00618964
C           3.19983932      0.72977386      1.18439378
C           4.12222830     -1.50088098      1.02371529
H           3.19491604     -2.80760454     -0.44121514
C           4.11706789     -0.23180765      1.61132345
H           3.18434237      1.71950725      1.63892619
H           4.83043762     -2.25968385      1.36632363
H           4.82194623      0.00622300      2.40546351
O           1.42095446      1.39633766     -0.32642697
C           0.57359795      2.00825785      0.68650851
H           1.17928650      2.55066068      1.41468516
H          -0.04273555      2.69102606      0.08757871
H          -0.04837910      1.24338760      1.16348216
C          -2.24953070     -2.20997643     -4.90818855
H          -1.49287413     -2.72087556     -4.27129317
H          -2.94632696     -2.94908627     -5.34251282
C          -2.94751457     -1.07906323     -4.12862883
H          -2.21275709     -0.66788068     -3.36530937
H          -3.15641560     -0.23332656     -4.82276995
C          -4.80759132     -0.29681976     -2.71597040
H          -5.61361608     -0.56848702     -2.01311907
H          -4.03125760      0.21758557     -2.09821716
H          -5.19734598      0.45218059     -3.42217397
C          -3.92834134     -2.58793149     -2.41477680
H          -4.77430378     -2.77248093     -1.73702755
H          -3.63906836     -3.53375716     -2.89535591
H          -3.04929300     -2.30146860     -1.76166457
C          -5.24199453     -2.00596443     -4.42164265
H          -6.17551095     -2.31867521     -3.92407499
H          -5.49635020     -1.22711864     -5.16285119
H          -4.85479491     -2.87146804     -4.99067942
N          -4.22398629     -1.50166536     -3.41892808
O          -1.61643617     -1.63349378     -6.04413392
H          -0.87456659     -1.02208189     -5.73456973
Cl         -0.11599521     -1.66518633      1.83695246
C          -6.15861058      7.23145347      0.94442262
H          -7.11709655      6.68756968      1.02228608
H          -6.33894678      8.30778500      1.11159758
C          -5.44951349      6.95874642     -0.39772242
H          -4.45020248      7.44788871     -0.42048377
C          -5.31829240      5.45336018     -0.69713806
H          -6.29029276      4.93413891     -0.65983806
H          -4.84470815      5.28071444     -1.67960809
O          -6.26785197      7.45141935     -1.47420606
H          -6.18680320      8.42181283     -1.54551451
O          -5.31090247      6.84195654      2.02606513
H          -4.86513606      5.97233413      1.78691292
O          -4.43799380      4.95280855      0.32599528
H          -4.59177231      3.96226432      0.45201046
C           8.17403531     -3.70250115     -2.66332184
H           8.18269842     -2.61598751     -2.86277145
H           8.84653634     -4.20598546     -3.37991991
C           6.74813306     -4.28880334     -2.69203760
H           6.75279891     -5.34193614     -2.33089715
C           5.74403311     -3.44418943     -1.88649542
H           5.72539568     -2.39101911     -2.21406945
H           4.72543232     -3.87050205     -1.94282633
O           6.24035133     -4.22650284     -4.03581187
H           6.61367802     -4.95159805     -4.57390679
O           8.76856654     -3.95050342     -1.38724097
H           8.09605908     -3.74105216     -0.67715826
O           6.20269362     -3.54007977     -0.51928320
H           5.84497417     -2.78191851      0.00514461
          93
 Energy =     -0.91126803 a.u.  #Cluster:   50
C          -4.30959877      2.98881003      0.00387552
C          -3.15871373      2.50758016      0.63779520
C          -3.04124244      1.15288706      0.97037072
C          -4.09177485      0.25581111      0.71318191
C          -5.23123621      0.72690540      0.07317529
C          -5.34204482      2.09666884     -0.28872360
H          -4.41866886      4.04205226     -0.24916087
H          -2.34304920      3.20505769      0.86701861
H          -3.99566074     -0.78490350      1.03148827
O          -6.44262220      2.57695712     -0.95208808
H          -7.13826528      1.85901391     -1.01867488
O          -6.30754189     -0.03886458     -0.34474389
C          -6.63686030     -1.18627199      0.48078900
H          -7.57835780     -1.52644370      0.03108258
H          -5.85736758     -1.94801589      0.38648454
H          -6.77662483     -0.87994709      1.52178459
C          -1.73944540      0.64848100      1.54111561
H          -1.33704475      1.33836885      2.33632984
C          -0.70279542      0.49744126      0.40484709
H          -0.64259936      1.45163476     -0.17499574
C          -0.94786643     -0.69057211     -0.53395681
H          -0.00924842     -1.00952804     -1.02784186
H          -1.41076024     -1.55201846     -0.02442805
O          -2.00581833     -0.62317348      2.16648089
H          -1.14306076     -1.04346497      2.40517962
O          -1.79132437     -0.25393996     -1.62553832
H          -2.73413045     -0.30720624     -1.35022803
O           0.56309311      0.28557540      1.09275480
C           1.69045676      0.67384211      0.35713713
C           1.98236011      2.01822124      0.06476238
C           2.61907843     -0.33367949     -0.01651113
C           3.14941007      2.41654468     -0.54052446
C           3.80362538      0.01642711     -0.59382826
H           2.35548674     -1.37185762      0.17475559
C           4.20505507      1.42589268     -0.75135430
H           3.37746113      3.45343435     -0.72036380
H           4.54326417     -0.72787878     -0.86441596
H           4.84229396      1.62112313     -1.63687050
O           0.91358378      2.93167411      0.19291844
C           1.09597194      3.93472993      1.22287601
H           1.97939871      4.53851305      1.00603575
H           0.16500187      4.51106289      1.16005707
H           1.18924491      3.43895507      2.20113207
C           1.62372918      1.63749101     -3.28623733
H           2.25876507      0.99335893     -2.63089552
H           1.41234892      1.10668101     -4.23063782
C           0.37454227      2.06784284     -2.51367912
H           0.06515101      1.24975518     -1.80847981
H           0.64434889      2.93490815     -1.84189326
C          -1.98453794      2.76812643     -2.44475632
H          -2.84816176      3.18033111     -2.98496254
H          -2.32081478      1.84707495     -1.91514518
H          -1.70514969      3.48726385     -1.64186812
C          -1.22010018      1.30911640     -4.26222246
H          -2.14164502      1.52425374     -4.82394564
H          -0.42413479      1.07055251     -4.98869349
H          -1.40548931      0.39243330     -3.65123356
C          -0.49114068      3.67577132     -4.19895799
H          -1.20114661      3.82592946     -5.02269396
H          -0.48612614      4.60709904     -3.59093069
H           0.53544518      3.59787093     -4.62742213
N          -0.82330505      2.46169339     -3.36581682
O           2.35884849      2.79361764     -3.69058493
H           2.89510197      3.12574149     -2.91744628
Cl          5.53344961      1.74294938      0.62631906
C           1.51241125      1.74889655      5.48732078
H           1.01972953      2.67698008      5.82316496
H           2.49434916      1.99424121      5.03675216
C           0.63082817      0.95430419      4.50427883
H           1.12856066      0.00516768      4.20786241
C          -0.78715778      0.68374700      5.05303178
H          -1.29127651      1.61548670      5.35436033
H          -1.41537481      0.14729904      4.31594191
O           0.43053650      1.80698372      3.37269206
H           0.68898694      1.32940427      2.51443953
O           1.83654080      0.95704089      6.63362728
H           1.05167987      0.39799497      6.87917836
O          -0.60671484     -0.18480037      6.19475301
H          -1.37164701     -0.10767608      6.79571956
C          -0.90745431      5.88539814     -1.05734007
H          -0.31447377      6.67308111     -0.56037644
H          -0.21375645      5.15420549     -1.51551628
C          -1.92191043      6.45275863     -2.07088936
H          -2.73847548      5.71504668     -2.26224193
C          -2.52882372      7.78369371     -1.58645819
H          -1.76018745      8.53897514     -1.35138657
H          -3.25088196      8.20421893     -2.30871975
O          -1.17162543      6.63118611     -3.27944591
H          -1.68958257      7.11443869     -3.95422431
O          -1.63958158      5.13793178     -0.08243976
H          -2.34775830      5.73114835      0.30122253
O          -3.25784307      7.40846408     -0.39862473
H          -3.35772291      8.18195988      0.19520847
