          92
 Energy =     -1.01705036 a.u.  #Cluster:    1
C           3.79630536      2.73256662     -0.45293970
C           2.63775124      2.08364891     -0.88792371
C           2.49107460      0.71545547     -0.64315446
C           3.51116431     -0.00540524      0.01715853
C           4.67289243      0.64988617      0.44181210
C           4.80247447      2.02225475      0.21161875
H           3.91192280      3.80121902     -0.63207278
H           1.85683584      2.63244379     -1.42075095
H           5.44826801      0.08377399      0.95681690
H           5.69878653      2.54094686      0.55170541
O           3.38828289     -1.33666461      0.39234508
O           1.40087275      0.01794779     -1.14106950
C           3.05032054     -2.26648543     -0.67578864
H           3.83665103     -2.25663923     -1.43187467
H           3.01907646     -3.22247012     -0.13682374
H           2.06914462     -2.01673148     -1.10197367
C           0.16124465      0.02454008     -0.37082440
H          -0.25277479     -0.98285109     -0.67676411
C          -0.70252358      1.17644166     -0.92748127
H          -0.26382660      2.17314259     -0.68578715
O          -0.66550580      1.14363194     -2.36906343
H          -2.07287367      1.42078949     -3.05942755
C           0.33577243      0.11255445      1.14792692
H          -0.64779838      0.25607690      1.64894637
H           1.02294678      0.92267935      1.44947653
O           0.78930933     -1.12838780      1.68476167
H           1.71548956     -1.31966534      1.36874439
C          -2.13520379      1.06159443     -0.47126783
C          -2.92970046      0.01026719     -0.95535193
C          -2.66407400      1.99854833      0.41725861
C          -4.25860637     -0.09700212     -0.55878170
H          -2.48911543     -0.72658453     -1.64286618
C          -3.99417132      1.89069376      0.83787093
H          -2.05586477      2.82109057      0.78871996
C          -4.80097278      0.85263343      0.35803409
H          -4.42154099      2.61032837      1.53448265
O          -6.07620957      0.88589998      0.86980259
O          -5.12157898     -1.08255773     -0.98422932
C          -7.02180481     -0.11290275      0.40799682
H          -6.67072799     -1.11441834      0.68141951
H          -7.92896138      0.16506187      0.95453923
H          -7.15594354     -0.03025146     -0.67602131
C          -4.62528814     -2.00460145     -1.99352240
H          -5.46038897     -2.71037846     -2.07640518
H          -4.44095376     -1.46767005     -2.92692143
H          -3.72676011     -2.52904761     -1.63647191
C           0.50192053      2.74596896     -4.87748731
H           1.17564680      3.39640980     -5.46245378
H          -0.52883759      3.16619489     -4.90244740
C           0.45653040      1.29599243     -5.38265540
H          -0.20181456      0.68136107     -4.69017972
H          -0.05023364      1.25416628     -6.37065083
C           1.60476504     -0.76630069     -6.07140060
H           2.54213994     -1.33284303     -6.16296035
H           0.93984196     -1.38962947     -5.39075235
H           1.11852660     -0.72420434     -7.05404294
C           2.41655157      0.44365220     -4.08981717
H           3.37882958     -0.07967132     -4.11485456
H           2.54954246      1.43131864     -3.59302242
H           1.72407693     -0.13246714     -3.41625759
C           2.76000504      1.39500191     -6.33795062
H           3.72872971      0.88000886     -6.45007722
H           2.34255652      1.55268111     -7.34560962
H           2.96694776      2.38790287     -5.89405880
N           1.81237799      0.60077778     -5.46501479
O           1.00468456      2.82608120     -3.55212802
H           0.43948027      2.21553098     -2.94311211
Cl         -2.75555647      1.61945364     -4.20452245
C           0.13420806     -4.65432985     -2.97825632
H           0.68550779     -4.45466659     -2.04780160
H          -0.84789630     -5.04288829     -2.65378958
H           0.64772389     -5.46595194     -3.50589224
C          -0.01385182     -3.43274856     -3.85894805
H          -0.70566232     -3.60880547     -4.71700798
C          -0.46366436     -2.16625194     -3.09245807
O           1.23146354     -3.13849479     -4.52139987
H           1.94741793     -3.04920127     -3.86046257
O          -0.09620505     -1.05455001     -3.59811493
H          -0.46614177      0.14352157     -2.75659120
O          -1.15731126     -2.22969649     -2.06045047
C          -1.88708619     -2.80936815      1.22367246
H          -2.31342534     -2.10962062      0.48949305
H          -2.45366001     -2.70591506      2.15517982
H          -0.85724938     -2.45389120      1.42979374
C          -1.86004567     -4.23672235      0.71359712
H          -1.39272862     -4.94964692      1.43632619
C          -3.29651129     -4.69425611      0.38643972
O          -1.10160318     -4.39305480     -0.46510146
H          -1.25622441     -3.60697214     -1.10916086
O          -3.76102560     -5.48548422      1.41639130
H          -4.68511772     -5.81070470      1.27419001
O          -4.00728995     -4.48498858     -0.56570322
          92
 Energy =     -1.01191297 a.u.  #Cluster:    2
C           4.80440231      2.18951197      2.27113679
C           3.42145575      2.22379706      2.09101760
C           2.84378422      1.55962611      0.99562300
C           3.67098056      0.87574875      0.07720717
C           5.05749315      0.84156710      0.27134880
C           5.61864911      1.48847967      1.37421088
H           5.25335334      2.71811177      3.11256019
H           2.77216800      2.77120748      2.77540379
H           5.68581344      0.31410918     -0.44393164
H           6.69647632      1.45310129      1.53005958
O           3.17275440      0.15042758     -1.00341543
O           1.48525597      1.74682013      0.87151651
C           2.61326536      0.99523090     -2.05558474
H           3.41745527      1.55432840     -2.53450229
H           2.14928218      0.26396720     -2.73092632
H           1.83838185      1.66373560     -1.64415433
C           0.64420236      0.57566570      0.59960887
H           1.18603601     -0.16118194     -0.03974693
C          -0.52990022      1.22311362     -0.18813293
H          -0.51121752      2.33465465     -0.03615239
O          -0.25803749      1.09764859     -1.57844985
H          -0.25833898      0.11852317     -1.85773555
C           0.31427232     -0.02331572      1.97252966
H          -0.51255223      0.49466038      2.49036501
H           1.20736453     -0.02695882      2.63397758
O          -0.01796940     -1.41285425      1.84478777
H          -0.83054324     -1.52745931      1.27925055
C          -1.88370345      0.64337885      0.15963453
C          -2.38930567     -0.43936095     -0.57731481
C          -2.65109364      1.21884377      1.17441328
C          -3.66649333     -0.92769838     -0.31994681
H          -1.77546015     -0.87510878     -1.37651959
C          -3.92336861      0.71621379      1.46606965
H          -2.27454444      2.06966498      1.74082950
C          -4.44471280     -0.35148046      0.72579603
H          -4.52957679      1.15017092      2.26070156
O          -5.71093877     -0.71173700      1.12391691
O          -4.28582859     -1.93020643     -1.03858287
C          -6.34985158     -1.81879003      0.43826813
H          -5.76065617     -2.73279216      0.56949458
H          -7.31400333     -1.87680021      0.95405296
H          -6.47133777     -1.58089440     -0.62444732
C          -3.48471733     -2.65970566     -2.00464306
H          -4.24925371     -3.24295276     -2.53063557
H          -2.96552302     -1.98059940     -2.68621140
H          -2.78302575     -3.31322271     -1.47342638
C           3.57212525     -2.83688402     -4.14713776
H           2.61699975     -3.41013431     -4.02762477
H           3.36923196     -1.99705366     -4.84295836
C           4.14323638     -2.32315353     -2.82148905
H           5.23748133     -2.15421483     -2.92761467
H           3.69081199     -1.32734233     -2.57007921
C           4.61730163     -2.70692452     -0.43460866
H           4.37540329     -3.27768683      0.48752248
H           5.70743127     -2.69566817     -0.55830578
H           4.27798245     -1.67260695     -0.20635516
C           4.42599876     -4.64704899     -1.94038101
H           4.22153586     -5.33913352     -1.10701796
H           3.95473329     -5.06627563     -2.85577866
H           5.51073201     -4.63291001     -2.13215027
C           2.42363732     -3.34165773     -1.33174307
H           2.22375575     -3.96060769     -0.43005072
H           2.00513255     -2.33554668     -1.11292104
H           1.82806998     -3.76374479     -2.17377470
N           3.89571271     -3.26309396     -1.64091214
O           4.47216972     -3.78498586     -4.72708195
H           5.14017007     -3.33913193     -5.28383749
Cl         -0.44414447     -3.45738348     -0.20570148
C          -0.96728963     -0.53466354     -5.09004453
H          -1.40055763     -1.47277531     -5.45857310
H          -1.67597490     -0.09358182     -4.37496795
H          -0.89553977      0.14890194     -5.94654416
C           0.39634209     -0.74077631     -4.45471864
H           0.81028349      0.20055837     -4.01982718
C           0.33912647     -1.87469568     -3.40825215
O           1.38326130     -1.11170267     -5.42563099
H           1.17021268     -2.01191718     -5.78026772
O           0.01628436     -1.52755732     -2.21118626
H          -0.24463719     -2.61812107     -1.28921901
O           0.64070712     -3.02699218     -3.73132201
C           3.10643647     -4.18452325      3.09928750
H           3.99874434     -4.44861865      2.51752592
H           3.36526482     -4.24843232      4.16228927
H           2.34861633     -4.95536791      2.88753275
C           2.56380823     -2.81729106      2.72580276
H           1.70941271     -2.50064486      3.37383155
C           3.68969473     -1.76391289      2.76624238
O           2.15861717     -2.84427084      1.36312497
H           1.25046995     -2.35551945      1.28276993
O           3.25884910     -0.65762097      3.45212673
H           3.92174466      0.09013239      3.45474652
O           4.79572528     -1.78473089      2.27900834
          92
 Energy =     -0.99883929 a.u.  #Cluster:    3
C           2.58559281      3.50678898     -0.33170859
C           1.39327021      2.87643469     -0.69958255
C           1.38690256      1.49235928     -0.88382952
C           2.57846789      0.74984461     -0.73417340
C           3.76792071      1.38343576     -0.36515224
C           3.75893131      2.76573200     -0.15241587
H           2.59821381      4.58693671     -0.18436581
H           0.47047831      3.44637055     -0.85687130
H           4.67613265      0.79369569     -0.24184776
H           4.67904493      3.26877930      0.14683481
O           2.60116256     -0.64078688     -0.85259089
O           0.25304924      0.81558403     -1.32704924
C           2.32032730     -1.12699616     -2.20078380
H           3.11449336     -0.79501626     -2.87388019
H           2.33955231     -2.21560370     -2.06234651
H           1.33381609     -0.77788194     -2.52999215
C          -0.79187444      0.51213870     -0.37478475
H          -1.39637430     -0.19027398     -1.02876070
C          -1.58806023      1.79104863     -0.01066597
H          -1.08032619      2.35125092      0.81189263
O          -1.46653990      2.67074989     -1.14671838
H          -2.36323310      2.89086963     -1.53009853
C          -0.29249105     -0.21177797      0.87927313
H          -1.14151120     -0.53781190      1.51573391
H           0.40286715      0.40629048      1.47654355
O           0.36724086     -1.44084241      0.54827012
H           1.25647868     -1.23505573      0.10309784
C          -3.04260246      1.53544631      0.29994375
C          -3.71168714      0.41822588     -0.21247738
C          -3.75029177      2.47754426      1.06156537
C          -5.07157903      0.23079942      0.03150687
H          -3.17117713     -0.32581460     -0.81890866
C          -5.11287261      2.31409290      1.30024233
H          -3.23546287      3.34530154      1.47701924
C          -5.78793244      1.18693881      0.79664961
H          -5.67304864      3.03473389      1.89668452
O          -7.12307159      1.18714459      1.09956186
O          -5.78165828     -0.82774230     -0.51624009
C          -7.89265743     -0.00830816      0.80415940
H          -7.47813294     -0.86531987      1.34226163
H          -8.88434052      0.26907805      1.18021850
H          -7.90004355     -0.19196547     -0.27632133
C          -5.13307460     -2.13049381     -0.42409039
H          -5.88203768     -2.79069739     -0.87694704
H          -4.20002393     -2.14198621     -1.00838727
H          -4.95273855     -2.38320485      0.62198912
C          -2.01471169      0.41316335     -4.07601080
H          -2.12860275     -0.42531837     -3.35089750
H          -1.09331246      0.26080094     -4.67044963
C          -3.22012891      0.56463551     -4.99916087
H          -3.23606964      1.60078797     -5.42091132
H          -3.09058538     -0.14509685     -5.86467297
C          -5.61514815      0.23380048     -5.44523424
H          -6.62339504      0.06380501     -5.03535051
H          -5.63097417      1.16193658     -6.03810549
H          -5.38998294     -0.61075086     -6.13756784
C          -4.91057997      1.42091557     -3.39610228
H          -5.80713485      1.20686852     -2.79497864
H          -4.06837491      1.59409377     -2.68521235
H          -5.06567176      2.37180722     -3.93913194
C          -4.61809090     -1.00691744     -3.58296656
H          -5.41343568     -1.01572769     -2.82026997
H          -4.76513933     -1.89038352     -4.24179188
H          -3.65136722     -1.23448400     -3.06187352
N          -4.57578483      0.29127744     -4.34159583
O          -1.89649830      1.64973860     -3.35552958
H          -1.15274880      1.60819380     -2.66951477
Cl         -3.22494233     -2.50952682     -6.16116452
C          -2.14207039      5.32949533     -4.51132518
H          -2.59226716      6.32729925     -4.60527100
H          -1.31402304      5.41259468     -3.79120412
H          -1.68837534      5.07465376     -5.48132316
C          -3.13425193      4.26694692     -4.09248521
H          -2.63366386      3.27005407     -3.87458522
C          -3.95631720      4.75471191     -2.88641267
O          -4.06514862      3.93032179     -5.11991134
H          -4.41552789      4.73779104     -5.56381335
O          -4.02446539      3.74674242     -1.94344954
H          -4.53083495      3.99747498     -1.11978855
O          -4.52058110      5.79854106     -2.68905712
C          -0.90620705     -3.94834449     -4.14593734
H          -0.81710736     -2.99969091     -4.69519640
H           0.06802670     -4.20752868     -3.72174326
H          -1.15899632     -4.69635793     -4.91338394
C          -2.00464883     -3.89548277     -3.09199477
H          -2.12312344     -4.86689507     -2.55067978
C          -1.62919241     -2.82338003     -2.03281463
O          -3.24750708     -3.54957845     -3.58772269
H          -3.20341081     -3.16293086     -4.68856644
O          -0.58064459     -3.17113692     -1.26219655
H          -0.33390760     -2.45294382     -0.54212112
O          -2.18446447     -1.74829987     -1.82867095
          92
 Energy =     -0.98907541 a.u.  #Cluster:    4
C           2.01961711      1.42516441      1.11683847
C           1.19296283      1.05883946      0.04984717
C           1.23373455     -0.25804522     -0.41655665
C           2.08843942     -1.19915913      0.19835871
C           2.93435811     -0.82266181      1.24270160
C           2.88523918      0.49560708      1.70524901
H           1.99432855      2.45008474      1.48686073
H           0.53958687      1.78637686     -0.43059257
H           3.62316125     -1.55931886      1.67381466
H           3.53503779      0.80074678      2.52608531
O           2.01356158     -2.54153730     -0.17659353
O           0.54581821     -0.66437855     -1.55373158
C           2.89834088     -2.89771824     -1.28247308
H           3.93937544     -2.79370278     -0.94514490
H           2.64614767     -3.94678070     -1.45942361
H           2.67531842     -2.26968362     -2.14958896
C          -0.88969011     -0.86490390     -1.45729031
H          -1.04279261     -1.49524619     -2.37465027
C          -1.59932135      0.50207460     -1.62054550
H          -0.84270926      1.32597320     -1.59583145
O          -2.22825832      0.53136538     -2.91844207
H          -1.57221888      0.44159568     -3.67173088
C          -1.27081742     -1.65544585     -0.20243828
H          -2.35820834     -1.86713177     -0.15620577
H          -0.95308339     -1.14926453      0.72888396
O          -0.67777004     -2.96113693     -0.25325450
H           0.31232413     -2.87185322     -0.45356195
C          -2.73765462      0.75051490     -0.66175899
C          -3.96435078      0.10260295     -0.88501307
C          -2.59707406      1.63928548      0.40479215
C          -5.05251766      0.35364835     -0.05687291
H          -4.06064079     -0.57724723     -1.73977786
C          -3.68464221      1.89981426      1.24528258
H          -1.64926377      2.14241071      0.59328326
C          -4.91810277      1.27292142      1.02318093
H          -3.59356219      2.59612618      2.07918909
O          -5.88660260      1.66163811      1.91528622
O          -6.30065302     -0.21932619     -0.22680999
C          -7.20147290      1.05998498      1.79869013
H          -7.13423023     -0.02046107      1.96138982
H          -7.75012979      1.56161504      2.60406122
H          -7.63081078      1.28232165      0.81546109
C          -6.37175391     -1.36664431     -1.11453666
H          -7.44216856     -1.60001837     -1.09294235
H          -6.04389490     -1.10003557     -2.12669446
H          -5.77566570     -2.18926056     -0.70672814
C           0.41577554     -3.78609492      2.92591351
H           0.25746366     -4.20381333      3.94530724
H           0.52196799     -2.68683626      3.00774514
C           1.65470781     -4.36307903      2.24141311
H           1.80466378     -3.91618969      1.22874623
H           2.57778312     -4.05034757      2.84316053
C           3.00262894     -6.29952940      1.51260643
H           3.02154058     -7.36839913      1.26628465
H           3.23390156     -5.71278522      0.60396149
H           3.84877002     -6.09310244      2.21576117
C           0.55187099     -6.37923060      1.27160324
H           0.51465880     -7.47643232      1.23323439
H          -0.42736883     -6.00841308      1.66622460
H           0.63226593     -5.99217129      0.24238282
C           1.59798925     -6.49606814      3.51289836
H           1.68074587     -7.58898970      3.48602447
H           2.42552927     -6.08726593      4.15289182
H           0.66021298     -6.21484281      4.02560812
N           1.68672413     -5.88115990      2.13563075
O          -0.79184408     -4.10007265      2.23707975
H          -0.80656344     -3.66485716      1.32540043
Cl          5.01970198     -3.77627407      1.44609717
C           4.18534524     -2.30712364      4.55286420
H           3.24980939     -2.01208966      4.06486825
H           4.34438893     -1.65478373      5.41741628
H           4.99369829     -2.11091010      3.82973877
C           4.19087872     -3.78524055      4.94205848
H           5.12058265     -4.06254718      5.49726952
C           2.97078561     -4.04950605      5.85406027
O           4.03278226     -4.63574864      3.86281584
H           4.60635854     -4.20893468      2.82998007
O           3.31413195     -3.82618936      7.16877375
H           2.56811805     -3.98143499      7.80104680
O           1.84203675     -4.40809313      5.59994008
C          -4.79249677      0.84035024     -4.68512801
H          -4.09684068      1.42120558     -4.05165939
H          -4.99761505      1.42720345     -5.58730538
H          -5.73052066      0.76428887     -4.11756107
C          -4.24268878     -0.54215639     -4.99546011
H          -4.96144405     -1.19175315     -5.55197193
C          -2.92989807     -0.38813519     -5.79299506
O          -3.95371319     -1.27261743     -3.82177197
H          -3.33296746     -0.71599447     -3.21251446
O          -3.15019570     -0.65466714     -7.11435944
H          -2.33284868     -0.55917143     -7.67797270
O          -1.81705505     -0.07953995     -5.41774568
          92
 Energy =     -0.98719866 a.u.  #Cluster:    5
C           3.82615870      2.66132841      0.03210170
C           2.54489272      2.16247453     -0.23392923
C           2.33505628      0.78546496     -0.18740259
C           3.40314642     -0.09454622      0.10877016
C           4.68018830      0.40795086      0.35596527
C           4.88087571      1.79581078      0.32670347
H           3.98976219      3.74053720      0.01413025
H           1.72246606      2.85205633     -0.46109310
H           5.49643549     -0.27578213      0.58108800
H           5.87182761      2.19642058      0.53816741
O           3.20838957     -1.46256822      0.27537524
O           1.10991573      0.20282327     -0.51728344
C           2.74393983     -2.15560562     -0.91971988
H           3.50451202     -2.08387666     -1.70024648
H           2.63187053     -3.18401259     -0.55895118
H           1.78534292     -1.73535553     -1.25229073
C           0.02392019      0.29876449      0.44930071
H          -0.65507311     -0.48452533      0.03309420
C          -0.57504403      1.71332689      0.31842560
H           0.10912803      2.48607902      0.75966936
O          -0.65147937      1.91150604     -1.10732198
H          -0.40308065      2.86508374     -1.36795544
C           0.46085917     -0.03521739      1.88141334
H          -0.39493070      0.03505636      2.58405934
H           1.28270440      0.61584272      2.23192165
O           0.85433299     -1.40107424      1.96853597
H           1.68768672     -1.54463321      1.42949693
C          -1.97097806      1.83978996      0.87290566
C          -3.06800383      1.37858249      0.12385197
C          -2.16981346      2.52085887      2.07860317
C          -4.36112971      1.69071018      0.53890212
H          -2.88101469      0.82301476     -0.79523684
C          -3.46089954      2.82832227      2.50593291
H          -1.31321397      2.85887807      2.66882527
C          -4.55888286      2.46538855      1.71386457
H          -3.63138089      3.37527083      3.43370520
O          -5.73869807      3.06573624      2.09862476
O          -5.51858743      1.37527299     -0.15111728
C          -6.98350112      2.39787083      1.76141471
H          -7.16165168      2.47205508      0.68201644
H          -6.95203014      1.35260310      2.08086678
H          -7.71496475      2.97978297      2.33397924
C          -5.42635840      0.35555340     -1.17744943
H          -6.47769614      0.23966764     -1.47143016
H          -4.82170091      0.71733772     -2.01330731
H          -5.03217595     -0.57577362     -0.75946722
C          -3.69844458      5.92135234      0.71472838
H          -3.32479068      5.80502168      1.75107588
H          -3.60286133      6.98290747      0.41512480
C          -2.96932641      4.96354436     -0.20497904
H          -1.77622244      4.98093112      0.05422101
H          -3.24570836      3.91750317      0.01343358
C          -2.39664811      4.14563604     -2.45441170
H          -2.50722264      4.25876844     -3.54212491
H          -1.29572177      4.15774006     -2.23749146
H          -2.73886552      3.13615949     -2.16609077
C          -2.48671778      6.56462300     -2.02278572
H          -2.47338752      6.75488300     -3.10573512
H          -3.01073537      7.39573785     -1.52251589
H          -1.42715917      6.58610388     -1.66830083
C          -4.57438746      5.21443284     -2.08682646
H          -4.71744822      5.50223265     -3.13673250
H          -5.01095411      4.21123928     -1.93285501
H          -5.17426608      5.89474878     -1.44038225
N          -3.11569692      5.23028532     -1.68321225
O          -5.12120500      5.71415870      0.69316665
H          -5.36541205      4.86512253      1.14155935
Cl         -0.02162772      4.86584469     -0.03385196
C           2.30891649      2.08489788     -5.43629771
H           2.63135017      3.06515555     -5.03434085
H           2.92715379      1.31241941     -4.95938054
H           2.54645375      2.09308137     -6.50991763
C           0.82408069      1.83380140     -5.22971233
H           0.49137985      0.83469009     -5.60317834
C           0.47631889      1.99006095     -3.73837226
O           0.01797351      2.74450947     -5.95905989
H           0.29228038      3.68627684     -5.76097671
O           0.60892573      0.85049211     -3.06230349
H           0.38725433      0.95513762     -2.01268838
O           0.11753365      3.03231403     -3.20314812
C           2.09680303      5.17610826     -2.44743252
H           1.74715457      6.07450740     -1.91306236
H           1.27140762      4.44448005     -2.32759201
H           2.94679061      4.76955166     -1.88352794
C           2.45562832      5.40999741     -3.89463875
H           2.69369700      4.45594155     -4.45094338
C           1.31776586      6.17101035     -4.60387752
O           3.64157869      6.17938980     -4.05869362
H           3.66037454      6.94468244     -3.43336153
O           0.89998814      5.46206961     -5.72119833
H           0.20089194      5.93677153     -6.24499148
O           0.79895458      7.23619584     -4.36906657
          92
 Energy =     -0.98691058 a.u.  #Cluster:    6
C           4.74560567      1.70503824      1.68236689
C           3.42807548      1.90585314      1.28569432
C           2.58801387      0.79739776      1.04369458
C           3.09735675     -0.50682996      1.20788604
C           4.42397791     -0.69283809      1.62946194
C           5.24443929      0.40647745      1.86559455
H           5.39709417      2.56497841      1.84581241
H           3.02480379      2.90913294      1.14862833
H           4.79012607     -1.71089404      1.76611908
H           6.27393224      0.26049957      2.18831103
O           2.31167780     -1.64468395      1.03426008
O           1.34420056      1.19451537      0.61563390
C           2.52119367     -2.29989813     -0.25075789
H           3.54219338     -2.68182236     -0.31032884
H           1.78280348     -3.11800145     -0.21057749
H           2.31329789     -1.60798629     -1.07412454
C           0.24134243      0.23232002      0.57249532
H           0.57854219     -0.69183214      0.04573441
C          -0.78239946      0.99875651     -0.30441408
H          -0.60909319      2.10115677     -0.19183337
O          -0.45618570      0.78083826     -1.68100528
H          -0.72859737     -0.12678835     -1.97012932
C          -0.16450795     -0.07725741      2.02308593
H          -1.12495236      0.37468669      2.33039132
H           0.62552852      0.23953962      2.73073321
O          -0.38491650     -1.48548324      2.16554875
H           0.42061363     -1.97435623      1.83402513
C          -2.22947706      0.62528436     -0.06058781
C          -2.57989795     -0.66159796      0.38366473
C          -3.22540501      1.57391088     -0.29899579
C          -3.90740961     -0.95537992      0.66750286
H          -1.80579304     -1.42913104      0.53307217
C          -4.57965085      1.26348133     -0.09172611
H          -2.96237136      2.56884583     -0.65846017
C          -4.92298424      0.00655056      0.39305460
H          -5.33726838      2.01314563     -0.30085141
O          -6.20424603     -0.45427771      0.65411447
O          -4.36631439     -2.13432500      1.21299454
C          -7.29029934      0.49057121      0.48248002
H          -7.36903195      0.79318442     -0.56519980
H          -8.15908153     -0.10713388      0.78994752
H          -7.15146715      1.34753967      1.14907831
C          -3.36131793     -3.01265126      1.79970812
H          -3.95802739     -3.61452669      2.49338948
H          -2.92531202     -3.62540707      1.00173855
H          -2.58614237     -2.44717379      2.33669378
C          -5.72485936     -3.65639910     -0.92435838
H          -6.20899267     -4.64123480     -1.06582575
H          -5.21936442     -3.63125663      0.06501283
C          -4.75246044     -3.27698410     -2.06024310
H          -5.22637986     -2.47129072     -2.67021291
H          -3.81925223     -2.82030045     -1.63059573
C          -3.60677990     -3.92337511     -4.16093322
H          -3.29554020     -4.73830466     -4.83335503
H          -4.20535860     -3.20070502     -4.73819256
H          -2.67216736     -3.39714238     -3.85229888
C          -5.59746735     -5.16806038     -3.45324235
H          -5.33958457     -6.00993109     -4.11526173
H          -6.18864138     -5.57437376     -2.60725499
H          -6.26712997     -4.48441206     -4.00519589
C          -3.48259384     -5.40348838     -2.19503170
H          -3.15072565     -6.25488290     -2.80245996
H          -2.55096084     -4.89521693     -1.80473920
H          -3.96277980     -5.78779337     -1.27801207
N          -4.36086855     -4.44679728     -2.95757882
O          -6.80025902     -2.72471032     -0.95522165
H          -6.57845300     -1.94535913     -0.35605337
Cl         -1.26653032     -2.46720864     -2.06618604
C           1.00366468     -6.47346934      1.27451070
H           0.70354897     -7.22713682      0.53796302
H           1.82058417     -5.88183036      0.84140932
H           1.40050549     -7.01634503      2.14292858
C          -0.15960024     -5.58570971      1.69216686
H           0.13220725     -4.84833005      2.47712221
C          -0.76600733     -4.88635758      0.46272007
O          -1.18829184     -6.35722258      2.31617929
H          -1.79903125     -6.71987881      1.62585031
O          -0.11938890     -3.85727714      0.02696001
H          -0.66122127     -3.25598312     -0.96822955
O          -1.81904382     -5.30824770     -0.03813614
C           2.42312697      1.67795192     -2.32363768
H           2.42841742      2.11717683     -1.31460415
H           2.09970381      2.45583552     -3.02423006
H           1.61140445      0.92314714     -2.29732800
C           3.74721091      1.05846475     -2.71597094
H           3.73232018      0.60245192     -3.73754776
C           4.85486265      2.12183376     -2.60880199
O           4.11744862     -0.03273312     -1.88588946
H           4.16864773      0.24341973     -0.93462530
O           5.17374524      2.58432138     -3.86450326
H           5.87985202      3.28147813     -3.85507306
O           5.42126539      2.56176511     -1.63911829
          92
 Energy =     -0.98498389 a.u.  #Cluster:    7
C           3.64691436      1.40773605     -0.43582549
C           2.51707663      0.69361111     -0.84431575
C           2.38322768     -0.64122704     -0.45316833
C           3.37975246     -1.26403222      0.33082213
C           4.51040963     -0.54398745      0.72955014
C           4.63117713      0.79625817      0.34881733
H           3.75953595      2.45018269     -0.73185546
H           1.74042083      1.15501185     -1.45960172
H           5.26952901     -1.03330358      1.33917725
H           5.50446129      1.36667871      0.66453433
O           3.23658199     -2.56044997      0.81404154
O           1.33867381     -1.42517753     -0.91410830
C           3.25968917     -3.59138116     -0.21133191
H           4.20707029     -3.56312227     -0.75120985
H           3.15134176     -4.50958225      0.38103299
H           2.39448457     -3.46991079     -0.88788647
C           0.01446651     -1.24009161     -0.33084907
H          -0.46751086     -2.16542838     -0.73428660
C          -0.68176166      0.02558439     -0.90416355
H          -0.12002948      0.94417725     -0.61026276
O          -0.64553690     -0.06125611     -2.29993100
H          -1.66585826      0.42165436     -2.80478669
C           0.05910772     -1.25479574      1.20213603
H          -0.95014696     -1.10312763      1.63903662
H           0.74999280     -0.49602645      1.61009553
O           0.43273743     -2.55059756      1.67199416
H           1.39335348     -2.71713029      1.44610442
C          -2.11714113      0.07594218     -0.40056337
C          -2.92610650     -1.06484982     -0.49087086
C          -2.63571528      1.25809042      0.13280810
C          -4.24032230     -1.02767322     -0.01565616
H          -2.55177005     -1.98614908     -0.94498028
C          -3.96115479      1.31484058      0.58107419
H          -2.01852439      2.15396462      0.18558380
C          -4.76987287      0.17928608      0.50991942
H          -4.35000851      2.24964608      0.97601440
O          -6.08719536      0.11664081      0.93809299
O          -4.87444169     -2.25020896     -0.13091047
C          -6.75722281      1.37499835      1.19374736
H          -6.69893431      2.02750206      0.31689905
H          -7.78877077      1.04721552      1.37240576
H          -6.33716199      1.84909065      2.08495954
C          -6.22066756     -2.37508265      0.38955029
H          -6.42925655     -3.43734640      0.21996499
H          -6.24014674     -2.12221166      1.45467425
H          -6.90094702     -1.72636916     -0.17223877
C           1.44902808     -1.91844255     -3.55195220
H           2.52079478     -1.70148200     -3.40934753
H           0.84042704     -1.16428031     -2.97156031
C           1.07847083     -2.03340569     -5.03143777
H           1.87976458     -1.60452958     -5.67047938
H           1.01607904     -3.12443791     -5.28396800
C          -0.61015917     -1.69029211     -6.80592908
H          -1.55645565     -1.19127196     -7.09445331
H           0.16883278     -1.36176862     -7.51078922
H          -0.77070237     -2.77561381     -6.93981739
C          -0.11184701      0.13538310     -5.23107933
H          -1.03777810      0.66357802     -5.54442217
H           0.01387610      0.42762650     -4.15240216
H           0.73341499      0.53261720     -5.80383415
C          -1.34752322     -1.87861172     -4.47526962
H          -2.35094150     -1.52897605     -4.79504033
H          -1.37916386     -2.98273000     -4.44567270
H          -1.23332937     -1.48981673     -3.41890245
N          -0.25295842     -1.36100613     -5.36931964
O           1.17906931     -3.23730250     -3.02483075
H           1.45038666     -3.29981811     -2.03533472
Cl         -2.81907796      0.86235517     -3.71107524
C          -2.25504171     -4.28070986      0.75706385
H          -1.45119658     -3.69663744      1.23924729
H          -2.97317087     -3.57108222      0.31291372
H          -2.79053222     -4.79993064      1.56333876
C          -1.73911949     -5.27677971     -0.26398698
H          -2.55026306     -5.68882577     -0.92034116
C          -0.63812874     -4.62499347     -1.11153387
O          -1.18588576     -6.43383602      0.34968098
H          -0.45126668     -6.17871199      0.96020432
O          -1.13743930     -3.95285365     -2.17922661
H          -0.36129436     -3.52565632     -2.76617269
O           0.56515025     -4.62951050     -0.91556400
C          -4.83394134     -2.35280483     -3.26230672
H          -5.72293986     -2.30990309     -3.89901058
H          -5.16736598     -2.26594533     -2.21231451
H          -4.25391921     -1.43043250     -3.45774106
C          -3.99393802     -3.58960295     -3.47891031
H          -3.05553698     -3.60668697     -2.85721384
C          -4.83457469     -4.84954615     -3.22116409
O          -3.50262009     -3.67434804     -4.81917590
H          -4.24715687     -3.66112810     -5.46472805
O          -4.44626484     -5.44554349     -2.04564546
H          -4.97095375     -6.26282639     -1.83288315
O          -5.71813551     -5.33526433     -3.88540459
          92
 Energy =     -0.98439161 a.u.  #Cluster:    8
C           0.89590649      3.77683727      1.36368421
C           0.26351302      2.74811985      0.65850654
C           0.82263034      1.46736826      0.67927096
C           2.04976008      1.25016261      1.34763621
C           2.68697383      2.28132606      2.03782899
C           2.08774068      3.54557523      2.05864878
H           0.45248865      4.77327039      1.36406228
H          -0.64722013      2.93857049      0.07905555
H           3.62766456      2.09009291      2.55008658
H           2.56329272      4.35565991      2.60912359
O           2.60662387     -0.03198522      1.37796683
O           0.33963951      0.39622326     -0.04862995
C           3.30227206     -0.38618250      0.14561305
H           4.14057790      0.29590068     -0.01175909
H           3.64333130     -1.40594732      0.35571496
H           2.59513728     -0.36146703     -0.69327367
C          -0.96924583     -0.17650270      0.21974366
H          -1.10576790     -0.71549310     -0.75228625
C          -2.10722613      0.84110061      0.44870272
H          -1.80123730      1.64941884      1.16026144
O          -2.31359969      1.43646123     -0.84097774
H          -3.07522513      2.07300794     -0.80176699
C          -0.85853315     -1.12900677      1.42151230
H          -1.58360645     -1.96329686      1.34497859
H          -1.00506745     -0.59849934      2.38878367
O           0.41205229     -1.79063418      1.48782107
H           1.14934640     -1.13387315      1.28014820
C          -3.38132446      0.19471292      0.94848454
C          -4.32688626     -0.28769972      0.04169252
C          -3.64193978      0.15709103      2.32985089
C          -5.57157632     -0.72495914      0.50818717
H          -4.11489145     -0.28519277     -1.03092170
C          -4.88257115     -0.25930530      2.79941427
H          -2.87184615      0.47196918      3.04411200
C          -5.88224057     -0.63375904      1.88001871
H          -5.10514713     -0.28251754      3.86559297
O          -7.11633921     -0.81199938      2.47270679
O          -6.55742488     -1.12585275     -0.39185234
C          -8.26838970     -0.93800844      1.59449454
H          -8.24086264     -1.91321129      1.09960830
H          -9.10342222     -0.85482164      2.29693684
H          -8.27426379     -0.11741603      0.85022008
C          -6.27552672     -2.37957010     -1.06745253
H          -7.13408333     -2.46894836     -1.74517133
H          -5.33628456     -2.31289289     -1.62310827
H          -6.25220996     -3.19448385     -0.33915276
C          -6.40227063      2.57041476      2.83236953
H          -6.63526942      2.35138583      1.75990839
H          -5.37103086      2.22378659      3.05066026
C          -6.55069533      4.04179502      3.21744895
H          -6.63634598      4.11143311      4.32708447
H          -5.62783093      4.59286576      2.90797915
C          -7.77708907      6.17624616      3.00199034
H          -8.66031226      6.70579604      2.60531893
H          -7.78762349      6.28622932      4.09911908
H          -6.88138576      6.70190895      2.62032137
C          -9.03882435      4.05607631      3.07369280
H          -9.92880329      4.41267338      2.53631961
H          -8.97004549      2.94487508      2.93010652
H          -9.18553863      4.20416498      4.15492296
C          -7.71166290      4.64896974      1.08135702
H          -8.57867059      5.11748721      0.60062265
H          -6.78576594      5.10035462      0.67726906
H          -7.68300072      3.56814896      0.73170841
N          -7.77122025      4.71904727      2.58342866
O          -7.33455319      1.85591921      3.67083756
H          -7.35072969      0.89619149      3.38594342
Cl         -4.48050373      3.72166141      0.71622729
C           2.39811741     -0.89966456      4.42823050
H           2.35220871     -0.49800795      3.40232428
H           2.82812984     -0.12023652      5.06787192
H           3.10981023     -1.73661853      4.39522489
C           1.04471709     -1.37448576      4.92894551
H           1.10279899     -1.83086813      5.95106214
C           0.07806855     -0.17178924      4.97190498
O           0.48465401     -2.39443698      4.14412001
H           0.55596549     -2.19291938      3.13990420
O           0.16105132      0.41512217      6.21589933
H          -0.43001535      1.20535676      6.31356489
O          -0.67554098      0.29774416      4.15222240
C          -8.04925268      1.87127926     -3.33239268
H          -8.89122114      2.49596005     -3.00712111
H          -7.24988071      2.52791811     -3.70060298
H          -8.41332361      1.26012934     -4.16763867
C          -7.55406986      0.99072703     -2.19862760
H          -6.80216280      0.23739044     -2.53297947
C          -6.95760231      1.82834072     -1.05209448
O          -8.69648661      0.27000295     -1.71012309
H          -8.54434419      0.04041237     -0.75034713
O          -5.86508118      2.44935554     -1.31930138
H          -5.26458138      3.05287845     -0.32293816
O          -7.51951077      1.86330823      0.06029969
          92
 Energy =     -0.98335461 a.u.  #Cluster:    9
C           2.06685418      1.91060906      1.73808675
C           1.65613171      1.60729960      0.43587750
C           2.09328188      0.41729304     -0.14924350
C           2.96005710     -0.44774901      0.55306344
C           3.38214849     -0.13252946      1.84632857
C           2.91590277      1.04686359      2.43831883
H           1.69834153      2.82955880      2.21118008
H           0.99271603      2.29841473     -0.11310462
H           4.05356197     -0.80733524      2.37301007
H           3.22330663      1.29393835      3.45463133
O           3.37968933     -1.68036660      0.02590676
O           1.76721244      0.10456203     -1.46804869
C           4.25055928     -1.53731268     -1.13643149
H           5.16155394     -1.00967684     -0.84062828
H           4.46172246     -2.57557602     -1.40859987
H           3.71773228     -1.00205974     -1.93344647
C           0.49542126     -0.55364165     -1.69498036
H           0.68955549     -0.95872555     -2.72241240
C          -0.63427838      0.49986066     -1.76439100
H          -0.19086912      1.52159703     -1.61012952
O          -1.10644404      0.38978107     -3.11880113
H          -1.55401934      1.28462963     -3.37915455
C           0.22895532     -1.68606514     -0.69877676
H          -0.79182172     -2.11140714     -0.81439543
H           0.36623461     -1.37969980      0.35617327
O           1.11478986     -2.77010871     -1.01745674
H           2.02104808     -2.58598880     -0.58398093
C          -1.78576037      0.27377416     -0.81198114
C          -2.98550412     -0.25837626     -1.29471441
C          -1.68311552      0.64363300      0.53379630
C          -4.06074229     -0.46856186     -0.42773171
H          -3.10919129     -0.46719311     -2.36105486
C          -2.77482796      0.50314360      1.39224148
H          -0.76306734      1.09516724      0.92028093
C          -3.96992703     -0.05501304      0.92372811
H          -2.68748066      0.86443497      2.41993507
O          -5.08906229     -0.25865415      1.71182134
O          -5.09813778     -1.17272956     -1.02003911
C          -5.26225595      0.67395106      2.81413639
H          -5.14678450      1.70750493      2.46570445
H          -6.29228596      0.47024557      3.12562969
H          -4.55139803      0.43714203      3.61101450
C          -6.43232546     -0.92283489     -0.50515462
H          -7.06226361     -1.47589036     -1.20701903
H          -6.51114738     -1.31890672      0.51533206
H          -6.64538633      0.15068807     -0.52285899
C          -0.07588866     -4.33403092     -3.10891196
H           0.68694954     -4.86699845     -3.71695077
H           0.21042418     -3.26496369     -3.02809141
C          -1.46058717     -4.56690222     -3.70809223
H          -1.37498031     -4.65461383     -4.81543196
H          -1.83889004     -5.57517360     -3.35793742
C          -3.81832039     -3.93960198     -4.01266156
H          -4.63313430     -3.23020863     -3.76980575
H          -3.74448394     -4.00437392     -5.10996784
H          -4.12716068     -4.93928814     -3.63589219
C          -2.09379207     -2.17095675     -3.94174351
H          -2.74496358     -1.33444222     -3.57184199
H          -1.07594626     -1.86390808     -3.61445305
H          -2.11110655     -2.15014579     -5.04052777
C          -2.72885107     -3.39754861     -1.89130587
H          -3.59779638     -2.74091876     -1.64856042
H          -2.93988567     -4.37844730     -1.43214232
H          -1.84431462     -2.95891177     -1.37360610
N          -2.50944298     -3.50751185     -3.37964056
O          -0.00480333     -4.94833163     -1.80979910
H           0.43731531     -4.29203003     -1.15529573
Cl         -1.03716141      3.38391670      2.40483817
C          -1.60803295      5.14212261     -3.15745408
H          -2.61479621      5.48412001     -2.87819776
H          -0.88681434      5.83320755     -2.70243503
H          -1.52711846      5.22517658     -4.24727752
C          -1.35992084      3.71751475     -2.70092597
H          -0.33592726      3.36554964     -2.93766292
C          -1.73350224      3.53934137     -1.20023183
O          -2.22367789      2.81101269     -3.43842057
H          -3.11940483      2.80737039     -2.98276688
O          -0.74826689      3.53226070     -0.39127246
H          -1.06620938      3.51707795      1.01021849
O          -2.92492592      3.35914232     -0.94115159
C          -2.75605647     -9.20817258     -0.17212697
H          -2.48926944     -9.63462903     -1.14680116
H          -1.82021564     -9.03653582      0.38133463
H          -3.32153418     -9.98005826      0.37253556
C          -3.57380343     -7.93300112     -0.28323655
H          -3.79278707     -7.47261495      0.71525333
C          -2.83368380     -6.93214464     -1.18535155
O          -4.86533383     -8.15489227     -0.82161779
H          -4.81657358     -8.53813063     -1.72959393
O          -1.88061447     -6.27056283     -0.50776121
H          -1.25173765     -5.67169220     -1.09948468
O          -3.05253760     -6.70258958     -2.36392675
          92
 Energy =     -0.98023244 a.u.  #Cluster:   10
C           3.30123454      2.93406543      0.42678738
C           2.21920156      2.14632094      0.02756348
C           2.38705560      0.76198838     -0.08158113
C           3.63929237      0.18515696      0.24044275
C           4.73297388      0.97973406      0.59137543
C           4.55109200      2.36200765      0.69397651
H           3.16606536      4.01271684      0.52606463
H           1.24600017      2.60208779     -0.19368218
H           5.69667266      0.51800264      0.79627967
H           5.38996830      2.99606956      0.97558225
O           3.73798486     -1.20283275      0.35625080
O           1.45714296     -0.10969996     -0.60367492
C           4.07321431     -1.89113121     -0.88179648
H           5.04239993     -1.54728413     -1.24891932
H           4.10642777     -2.93990085     -0.56524795
H           3.27434247     -1.71648791     -1.61359327
C           0.13962565     -0.26311463     -0.00868414
H          -0.25532964     -1.02076070     -0.73587714
C          -0.70874165      1.02972191     -0.00125198
H          -0.28324260      1.80190518      0.70043802
O          -0.61483797      1.68464525     -1.26430188
H          -1.06561173      1.15359345     -1.97196916
C           0.27474134     -0.84650871      1.40210561
H          -0.68622419     -1.25424138      1.77288078
H           0.65289575     -0.09176824      2.13090310
O           1.16150721     -1.97016089      1.41468501
H           1.96052722     -1.77364155      0.84383548
C          -2.15288731      0.71400432      0.32350472
C          -2.87547252     -0.15520353     -0.50099314
C          -2.76819127      1.31519171      1.43116394
C          -4.22590258     -0.39275824     -0.23337477
H          -2.40517341     -0.64370979     -1.36583146
C          -4.12345018      1.09700528      1.68635125
H          -2.18169825      1.96620450      2.09595152
C          -4.86301915      0.25866245      0.84228143
H          -4.62005261      1.57313954      2.53144662
O          -6.19939513      0.03799682      1.16464979
O          -4.87880606     -1.22815825     -1.14449775
C          -7.12435581      0.59733004      0.19057339
H          -6.92360929      0.18957887     -0.80569668
H          -8.09517624      0.26856441      0.57517467
H          -7.04189142      1.68815706      0.19676329
C          -5.58480579     -2.35060973     -0.53971133
H          -6.14510669     -2.76105757     -1.38527329
H          -4.85246122     -3.06524935     -0.15230685
H          -6.25327393     -2.00281994      0.25771127
C           3.16184371     -1.35490525      3.63804780
H           3.17779998     -1.70861663      4.68297934
H           2.43385895     -1.97349837      3.05607405
C           2.82654996      0.12880305      3.47672996
H           3.37416613      0.52928367      2.58970202
H           1.73076769      0.25596545      3.20519482
C           3.04262618      2.44832432      4.23984083
H           3.13835118      3.15913795      5.06061756
H           3.73769328      2.70696778      3.43671892
H           1.94025700      2.63154660      3.77498345
C           4.54675286      0.73972108      5.17526909
H           4.81018488      1.39985907      6.01444220
H           4.67105414     -0.31001575      5.49793523
H           5.28714851      0.89275175      4.36741703
C           2.14124520      0.75379055      5.77160492
H           2.32986982      1.38120768      6.65547676
H           1.11208297      1.00967897      5.41160459
H           2.13660259     -0.30221415      6.07886742
N           3.14639594      1.01608038      4.67168042
O           4.49041660     -1.59981925      3.16665995
H           4.49171782     -1.58743009      2.16926230
Cl          0.28985929      2.29345115      3.19687123
C          -4.36582249     -1.88825440     -4.51451888
H          -4.89638450     -1.14476893     -3.90037038
H          -4.41237885     -1.54953963     -5.55976794
H          -4.93471882     -2.82457477     -4.44472650
C          -2.93287470     -2.09272167     -4.05391820
H          -2.41043142     -2.92106617     -4.59700532
C          -2.13081020     -0.78908983     -4.25493373
O          -2.84284277     -2.46783061     -2.69699257
H          -3.55095787     -2.00427296     -2.14353469
O          -1.87922328     -0.59672355     -5.56259634
H          -1.27560852      0.21241365     -5.77897876
O          -1.70872163     -0.02236622     -3.40511756
C           0.89666597      2.67600457     -3.49396968
H           1.03512961      1.59769090     -3.32456979
H           1.88575300      3.11965943     -3.65415074
H           0.50721305      3.06803989     -2.53195085
C          -0.06857572      2.99183806     -4.61728190
H          -0.16477219      4.08944142     -4.81802865
C           0.37139060      2.27164492     -5.90767217
O          -1.39200906      2.57851667     -4.35810700
H          -1.41146776      1.69988347     -3.86126965
O           1.33231793      2.99155689     -6.55728415
H           1.63543410      2.56826270     -7.40735674
O          -0.00812287      1.22058687     -6.38745175
          92
 Energy =     -0.98002072 a.u.  #Cluster:   11
C           2.05875180      3.28692266      0.29428300
C           1.60588585      2.13103293     -0.34551269
C           2.22720566      0.90999941     -0.06291503
C           3.30930119      0.85155644      0.84402852
C           3.76519117      2.01741798      1.46944298
C           3.12521898      3.22979313      1.19991530
H           1.56700232      4.24018320      0.09622428
H           0.77801553      2.16696517     -1.05740324
H           4.59539494      1.95998078      2.17643293
H           3.46386201      4.14294229      1.70441946
O           3.88266091     -0.34481086      1.25413441
O           1.85854947     -0.25473565     -0.72471352
C           4.43984453     -1.16615651      0.18627152
H           5.29204774     -0.64891632     -0.25845882
H           4.75164827     -2.06718399      0.72625981
H           3.66852283     -1.39446638     -0.56235577
C           0.65348940     -0.93860580     -0.26471290
H           0.88419972     -1.97858801     -0.61523948
C          -0.52755102     -0.35971772     -1.08096342
H          -0.21039701      0.58861962     -1.58905212
O          -0.81028817     -1.34869437     -2.10119261
H          -0.40228654     -1.04770982     -2.94972700
C           0.47753365     -0.90912931      1.25820046
H          -0.49333022     -1.35071994      1.56240453
H           0.55667057      0.11304262      1.67159315
O           1.43270748     -1.76507394      1.88176958
H           2.34900128     -1.37815715      1.78192612
C          -1.80833522     -0.14885937     -0.31605039
C          -2.66250720     -1.23043803     -0.07016502
C          -2.17573928      1.13808816      0.09190035
C          -3.92873869     -1.01091071      0.47315504
H          -2.35703531     -2.24557991     -0.34741122
C          -3.42078259      1.35863482      0.68846739
H          -1.51017266      1.98480005     -0.07789987
C          -4.31963284      0.30168777      0.84583193
H          -3.70068924      2.37525045      0.98340083
O          -5.59645943      0.43466954      1.36391970
O          -4.71997986     -2.14874328      0.50248814
C          -6.21782250      1.73525459      1.19066395
H          -6.12794448      2.07077640      0.14140490
H          -7.26084757      1.52809356      1.45441979
H          -5.77130534      2.45647914      1.87893240
C          -5.83694452     -2.15306969      1.42894095
H          -6.11801734     -3.21075466      1.45575975
H          -5.52134265     -1.79664683      2.41542517
H          -6.63559945     -1.51896619      1.02945310
C          -5.53499934     -0.10616463     -3.80679146
H          -6.50816469     -0.53550226     -4.09555941
H          -5.68975246      0.90875358     -3.36226184
C          -4.77308360     -0.97016195     -2.78889953
H          -3.87891527     -0.38929696     -2.41478235
H          -5.40725883     -1.12394100     -1.88424263
C          -3.99067033     -3.24982094     -2.18292279
H          -3.80931899     -4.27995582     -2.51822796
H          -3.07129927     -2.91409802     -1.63786772
H          -4.80031496     -3.25923448     -1.42597485
C          -3.04384021     -2.13045070     -4.15082064
H          -2.70231343     -3.06353446     -4.61393124
H          -3.20569148     -1.36638178     -4.94592825
H          -2.21914620     -1.73226537     -3.50870083
C          -5.36547327     -2.95692686     -4.19745112
H          -5.06912932     -3.96612895     -4.52610365
H          -6.32424360     -3.03930779     -3.65989286
H          -5.53616776     -2.34855749     -5.11250700
N          -4.30022340     -2.31816977     -3.33264756
O          -4.82385678      0.00515270     -5.03761771
H          -4.10955859      0.69396669     -4.95266539
Cl         -1.87356500      0.88275382     -3.80875338
C           4.16798423      5.57277607     -1.79866968
H           3.30278633      5.15423986     -1.26540117
H           3.91360606      6.60125250     -2.08761037
H           4.27774303      4.99118145     -2.72625306
C           5.44648606      5.50967420     -0.98198374
H           6.33310161      5.91550773     -1.53235644
C           5.24789563      6.26787569      0.34416280
O           5.83858037      4.18330337     -0.67932685
H           5.09800775      3.66969292     -0.26333479
O           5.82032676      7.51031346      0.25069371
H           5.73103028      8.04755886      1.08374732
O           4.69009294      5.92714243      1.35926452
C          -3.91933123      4.76131545     -0.21508588
H          -3.87631568      3.96121703      0.53964512
H          -2.89081338      5.03252053     -0.48395957
H          -4.39627468      5.62765783      0.25778852
C          -4.70359878      4.32962379     -1.44427375
H          -4.77154296      5.14150295     -2.20523129
C          -4.11540296      3.03987876     -2.05691959
O          -6.06230563      4.06353491     -1.06536816
H          -6.23520584      3.07641675     -1.13705547
O          -2.95057562      3.12514881     -2.57703154
H          -2.46167478      2.02855883     -3.11574383
O          -4.81081879      2.00843322     -1.99843028
          92
 Energy =     -0.97973567 a.u.  #Cluster:   12
C           4.14373849      1.73328557      2.39192270
C           2.83112093      2.17067375      2.22891253
C           2.37371661      2.54391607      0.95836284
C           3.22833691      2.45268435     -0.16345912
C           4.55928737      2.02284319      0.01969432
C           5.00619549      1.66838420      1.28820092
H           4.50167663      1.44525890      3.37838363
H           2.16085710      2.23658721      3.08750110
H           5.21238486      1.96452277     -0.85073346
H           6.03365515      1.33025372      1.42387605
O           2.96028974      2.82046093     -1.45459177
O           1.11865788      3.12782690      0.79689524
C           1.57677646      2.79690557     -1.90324422
H           1.68983644      2.92654323     -2.98358269
H           1.09617076      1.83098932     -1.65532976
H           1.03073271      3.62785963     -1.43834005
C          -0.08078393      2.35488482      1.11582120
H          -0.82041810      2.92515890      0.48185472
C          -0.34961727      2.58156449      2.62073860
H           0.30933438      1.93234325      3.25008385
O           0.00802669      3.95123743      2.93014446
H           0.81221053      4.22020515      2.39312332
C          -0.01390532      0.88307861      0.68475416
H          -0.74454903      0.27612190      1.25711320
H           0.99820149      0.45439914      0.82370497
O          -0.26898058      0.75109433     -0.69443521
H          -1.23764915      1.15707959     -0.94666123
C          -1.78679477      2.45787726      3.07215837
C          -2.74900219      1.74571323      2.34571181
C          -2.14062097      3.07640020      4.27855338
C          -4.06492049      1.67167550      2.80690858
H          -2.49058012      1.24827148      1.40138818
C          -3.44933535      3.00084523      4.75831769
H          -1.38473935      3.62312818      4.84610243
C          -4.42147092      2.31056217      4.02576409
H          -3.72809313      3.46953496      5.70238783
O          -5.67254118      2.36518811      4.60908271
O          -5.07469211      0.98230700      2.17247744
C          -6.73719613      1.58048776      4.01204955
H          -6.44555480      0.52495204      3.96376801
H          -7.56177684      1.73839376      4.71492354
H          -6.96332786      1.96468473      3.01159673
C          -4.88497759      0.64972380      0.76702824
H          -5.70140688     -0.05703125      0.59189421
H          -4.99307497      1.56041592      0.16646270
H          -3.90805987      0.18836778      0.58275778
C          -2.22337903      5.01077721     -1.90665591
H          -1.56619480      4.30608698     -2.45556359
H          -3.26775643      4.65032336     -2.00199815
C          -1.74227684      5.18022152     -0.46085422
H          -1.33018292      4.19267669     -0.09855742
H          -0.90453702      5.92084975     -0.44224993
C          -2.19294351      5.84646375      1.86885868
H          -2.96363307      6.06723010      2.63179286
H          -1.64265254      4.94038909      2.21910746
H          -1.46966116      6.68310921      1.85817255
C          -3.90994202      4.59655280      0.62076984
H          -4.71588635      4.91598126      1.30568115
H          -4.34238293      4.35317293     -0.36947939
H          -3.50247165      3.63591212      1.00324849
C          -3.42258111      6.95145132      0.05384713
H          -4.25663500      7.25825944      0.70705783
H          -2.66702843      7.75680252      0.05455285
H          -3.79524837      6.87865886     -0.98934479
N          -2.82397437      5.63887643      0.51174371
O          -2.23641166      6.28763155     -2.56110633
H          -1.31897098      6.62700995     -2.64246391
Cl         -2.70324136      2.16783427     -1.07199429
C          -7.78425868      5.47354799      4.00574688
H          -7.84028996      6.52474433      3.68836480
H          -7.70427581      4.85153579      3.10535597
H          -8.74112355      5.24843841      4.50115091
C          -6.63269483      5.23118204      4.96007604
H          -6.52934312      4.14757855      5.24874876
C          -5.29423274      5.68849624      4.36223790
O          -6.90754041      6.01646791      6.11899085
H          -6.18345311      5.91229352      6.78435120
O          -4.38574573      5.83398319      5.38251146
H          -3.47592687      6.08343068      5.06967770
O          -4.95482309      5.89356450      3.21966255
C           3.24622160      6.03589158     -0.48123356
H           3.56465200      7.07366776     -0.62173397
H           3.78455740      5.63465662      0.39327310
H           3.60023194      5.45450814     -1.35157450
C           1.75090480      5.87923211     -0.32101884
H           1.43316881      4.78596850     -0.35846583
C           1.25116535      6.52703034      0.97536752
O           1.00794093      6.44701567     -1.39470197
H           1.26032102      7.38679309     -1.54833264
O           1.82580753      5.94591284      2.07446948
H           1.54820248      6.37362789      2.93442341
O           0.43170877      7.40771783      1.11125574
          92
 Energy =     -0.97695184 a.u.  #Cluster:   13
C           3.62344347      2.31589478      0.97353995
C           2.37262826      1.91738239      0.50752390
C           2.06787879      0.55343508      0.40762464
C           3.03858218     -0.41887863      0.73305222
C           4.30079212     -0.00362429      1.20818537
C           4.57842877      1.35370604      1.33324115
H           3.86146766      3.37438222      1.05375617
H           1.62371126      2.65690568      0.20814353
H           5.03857275     -0.76201841      1.46519716
H           5.55178457      1.67199699      1.70630401
O           2.93118133     -1.78304577      0.66097449
O           0.83077760      0.15854883     -0.10632913
C           1.77173624     -2.35993345      0.00300253
H           1.55199127     -1.84362196     -0.93765747
H           2.09774491     -3.39272103     -0.16263373
H           0.91382409     -2.30974229      0.68819663
C          -0.30845499      0.23052864      0.80081407
H          -1.02770159     -0.42839028      0.24546742
C          -0.80240777      1.69577307      0.84110824
H          -0.16925591      2.31549734      1.51978312
O          -0.65001845      2.29604378     -0.45858778
H          -0.12105834      1.69431469     -1.04571880
C           0.00131676     -0.35726322      2.18693871
H           0.53504956      0.35269664      2.84209363
H           0.61326440     -1.27975787      2.07501310
O          -1.20093491     -0.67344568      2.83951856
H          -1.89200865     -1.33578052      2.15107474
C          -2.26335303      1.79377149      1.22009882
C          -3.22087226      1.00334883      0.56609224
C          -2.65513617      2.67067097      2.23581439
C          -4.55975970      1.06615265      0.94820307
H          -2.90493875      0.32065868     -0.22561171
C          -3.99283045      2.73276861      2.63713056
H          -1.92354457      3.31902420      2.71391977
C          -4.94992905      1.91942382      2.01710736
H          -4.31550718      3.41807538      3.41912702
O          -6.20257850      2.05769618      2.57360815
O          -5.56723928      0.31273255      0.37307560
C          -7.23346026      1.12002702      2.17389655
H          -6.95223631      0.10507527      2.48027700
H          -8.09910712      1.48365582      2.73837071
H          -7.40483071      1.17833331      1.09299505
C          -5.23948736     -0.38885950     -0.85825266
H          -6.19930538     -0.86982970     -1.09720436
H          -4.94574351      0.32578227     -1.63045568
H          -4.45657994     -1.13703074     -0.67044388
C          -2.88270356      1.35855011      5.74600030
H          -2.69045333      2.11864744      4.96359593
H          -3.96981526      1.35526432      5.99264674
C          -2.31485175     -0.01124956      5.37003982
H          -1.63221367      0.08785342      4.45190960
H          -1.66643066     -0.39561350      6.18646203
C          -2.65354582     -2.34809906      4.67969670
H          -3.32365701     -3.05257004      4.15266277
H          -1.81463609     -2.15771855      3.95084799
H          -2.23319964     -2.83431288      5.56780710
C          -4.15189467     -0.57923672      3.82310391
H          -4.77248976     -1.39200434      3.38631017
H          -4.82242172      0.26132709      4.06337470
H          -3.46352907     -0.25103241      3.00542089
C          -4.30276875     -1.30524353      6.17536814
H          -4.94455511     -2.18168479      5.98735743
H          -3.76062548     -1.46065606      7.12699109
H          -4.98142999     -0.43941081      6.34459807
N          -3.36658252     -1.05546448      5.01881889
O          -2.28865920      1.79601345      6.98503195
H          -1.32768310      1.96089838      6.87208934
Cl         -2.90707361     -2.24553043      1.34650338
C          -3.53715458      2.19421068      9.97525131
H          -3.25312869      2.74788582      9.06488453
H          -4.24812469      2.81468220     10.53718559
H          -2.62860790      2.10019191     10.58715455
C          -4.10673664      0.82566729      9.64536211
H          -4.31311365      0.20187416     10.55040841
C          -5.39378680      1.00185765      8.81794846
O          -3.21133762      0.03598789      8.88321531
H          -2.77258748      0.60265554      8.16558745
O          -6.47009725      1.12171215      9.65399082
H          -7.33219341      1.24679260      9.16748392
O          -5.55135623      1.03277040      7.61850773
C          -5.99427535     -3.89191949      1.44157960
H          -6.57971175     -4.66193459      1.95166046
H          -5.93378750     -4.15320684      0.37483647
H          -4.95446927     -3.95177835      1.81545705
C          -6.53476139     -2.49108034      1.64024536
H          -5.83686139     -1.69864479      1.23859447
C          -7.93893991     -2.38184574      1.03427031
O          -6.64703173     -2.14121881      3.01981353
H          -7.29483485     -2.72212805      3.48430341
O          -7.87928405     -2.07702951     -0.30132423
H          -8.77933924     -2.01036928     -0.72276972
O          -9.00566188     -2.53751887      1.57947354
          92
 Energy =     -0.97650568 a.u.  #Cluster:   14
C           3.84512326      2.43336603      0.90523398
C           2.76262217      2.08601057      0.09462036
C           2.59531917      0.75437132     -0.28915611
C           3.54761141     -0.21774176      0.09372048
C           4.63716577      0.13609246      0.89452103
C           4.76850745      1.46228141      1.31487018
H           3.95845976      3.47267016      1.22276064
H           2.04567967      2.85247561     -0.22626174
H           5.35957871     -0.62550227      1.18351772
H           5.60140489      1.74306030      1.95846939
O           3.40600498     -1.56828801     -0.22739114
O           1.57130071      0.37183842     -1.15021812
C           3.44343726     -1.84578870     -1.65608923
H           4.41028317     -1.54045786     -2.06290337
H           3.32271763     -2.93455023     -1.68237476
H           2.61253856     -1.33276050     -2.15758475
C           0.24579431      0.16322342     -0.58727172
H          -0.21083856     -0.37592176     -1.45146267
C          -0.43917001      1.52508047     -0.32907962
H           0.13737232      2.10663565      0.43536690
O          -0.39403949      2.22921412     -1.56911246
H          -0.15331346      3.26627603     -1.36900125
C           0.26024941     -0.69798400      0.68544987
H          -0.76201587     -0.82538441      1.09638749
H           0.91663426     -0.26480091      1.46688601
O           0.66552124     -2.03063073      0.39050814
H           1.64696887     -2.03715143      0.18662181
C          -1.90515001      1.43794312      0.04924730
C          -2.72827379      0.40854450     -0.42289979
C          -2.47284727      2.48408661      0.79420617
C          -4.10971141      0.47981395     -0.23733299
H          -2.32107931     -0.45513153     -0.95330627
C          -3.84385100      2.52623513      1.04757293
H          -1.83811504      3.29707012      1.19261732
C          -4.67909744      1.53552614      0.51847325
H          -4.24737601      3.33931480      1.65065930
O          -6.05328666      1.50420328      0.62446432
O          -4.85071302     -0.44421918     -0.96176996
C          -6.66318389      2.40627890      1.58289142
H          -6.49562195      3.44538606      1.28432177
H          -7.72346618      2.13737465      1.49769619
H          -6.28444268      2.20485671      2.59030386
C          -5.83370135     -1.19893005     -0.20284952
H          -6.25782476     -1.85968535     -0.96584034
H          -5.33108629     -1.76620069      0.58535615
H          -6.59047109     -0.52163369      0.21156631
C          -2.46257138      4.16413012     -2.79050669
H          -2.47996586      4.85364723     -1.91357913
H          -1.47742855      3.64463189     -2.82141948
C          -3.64387689      3.18952014     -2.70118649
H          -3.65911330      2.73919509     -1.67619599
H          -4.58685508      3.77130507     -2.81969613
C          -4.95174130      1.32253675     -3.62587851
H          -5.00562004      0.47521299     -4.33016578
H          -5.10244256      0.88966676     -2.60812591
H          -5.80583761      1.98794217     -3.82895960
C          -2.50238862      1.08948706     -3.46012565
H          -1.98620120      0.75836546     -4.38185159
H          -1.69223783      1.54647786     -2.81823173
H          -2.83665615      0.18610945     -2.92512231
C          -3.49208507      2.61010314     -5.13045296
H          -3.76608226      1.86552727     -5.89263493
H          -4.11268927      3.51496469     -5.26865260
H          -2.44467081      2.92666721     -5.33784570
N          -3.62858868      2.05423043     -3.72892441
O          -2.64509345      4.99656323     -3.93956166
H          -1.86553481      4.91271075     -4.54402718
Cl          0.08560884      4.92405776     -0.91695540
C           1.75492528      2.51719885     -3.55611156
H           2.61106321      2.14729557     -4.12969705
H           2.02680590      3.50818535     -3.15944499
H           1.62963107      1.86667304     -2.65507061
C           0.46505024      2.54681696     -4.33419910
H          -0.39795532      2.90709871     -3.70195069
C           0.58746466      3.39319942     -5.61246447
O           0.03660674      1.25730145     -4.78419954
H           0.80841097      0.65942923     -4.92652654
O          -0.62324456      4.05480955     -5.83312211
H          -0.59402624      4.64453593     -6.63334109
O           1.47309466      3.53216883     -6.40940404
C           1.14787408      1.54184670      3.45480952
H           0.10794613      1.21518536      3.57092407
H           1.51817366      1.19618263      2.47998510
H           1.73112864      1.02528448      4.22989826
C           1.28653416      3.05069730      3.61331804
H           2.34932778      3.38384950      3.60240046
C           0.45657472      3.77087376      2.53326427
O           0.81361739      3.46630104      4.89371935
H          -0.17559881      3.51814076      4.88717464
O           1.12545607      3.98589756      1.42564161
H           0.55119215      4.56717248      0.53415502
O          -0.72026825      4.06885908      2.69620352
          92
 Energy =     -0.97585495 a.u.  #Cluster:   15
C           2.51036676      3.18812985     -0.37101475
C           1.50349788      2.24872417     -0.60098623
C           1.45496108      1.09333865      0.18834686
C           2.42954334      0.88260406      1.18625636
C           3.44603612      1.81788116      1.40408703
C           3.47073435      2.97760981      0.62740887
H           2.55601104      4.08635838     -0.98644704
H           0.77388081      2.37805132     -1.40721077
H           4.21522370      1.63014484      2.17327948
H           4.25423013      3.71672726      0.79242244
O           2.34275535     -0.25750618      1.98867719
O           0.57921822      0.05635351     -0.08377825
C           3.33868181     -1.27507068      1.65705524
H           4.31372105     -0.82120607      1.44030348
H           3.39181548     -1.86471910      2.58969665
H           2.97068881     -1.85572928      0.80851311
C          -0.84062476      0.18923825      0.17277579
H          -1.21294532     -0.58273093     -0.54836242
C          -1.45957037      1.56960169     -0.12741705
H          -0.81957620      2.39428360      0.27190464
O          -1.42476294      1.68039892     -1.56481118
H          -2.12909329      2.28611939     -1.87934403
C          -1.07251398     -0.23198772      1.63817713
H          -2.10059746     -0.60698521      1.80331169
H          -0.85118504      0.57997734      2.35195139
O          -0.23345285     -1.35356009      1.92835446
H           0.73104957     -1.08854657      1.74883478
C          -2.87707347      1.69073844      0.38220298
C          -3.88474003      0.86680317     -0.15079705
C          -3.18560267      2.64154846      1.35611459
C          -5.19697906      1.00295694      0.29199465
H          -3.62226801      0.13684097     -0.91632272
C          -4.50141233      2.78991674      1.80465134
H          -2.40885317      3.28226892      1.77437358
C          -5.51734182      1.98240564      1.27854998
H          -4.75911278      3.53179568      2.56121639
O          -6.75062519      2.26939866      1.80376802
O          -6.26836931      0.25857682     -0.16642085
C          -7.88957461      1.48535704      1.36490030
H          -7.74764960      0.43438834      1.63626237
H          -8.70743718      1.94718791      1.93090587
H          -8.02987924      1.59706479      0.28409702
C          -5.97423961     -0.85857714     -1.04226653
H          -6.97488103     -1.27989000     -1.20449777
H          -5.54387166     -0.50174705     -1.98259891
H          -5.32210716     -1.57770675     -0.53693188
C           0.56860312     -2.15644677      5.09698494
H           1.26364802     -2.91259129      4.67127897
H           0.38968259     -2.36587378      6.16621356
C           1.03955845     -0.71348384      4.82854931
H           1.14895462     -0.58756228      3.71390985
H           0.23342008     -0.00943802      5.13267048
C           2.77329166      1.01012038      4.90287905
H           3.73462290      1.35626964      5.35620167
H           3.02346767      0.90504309      3.82042017
H           2.01411385      1.78825775      5.02599454
C           3.42272553     -1.34233919      5.22534905
H           4.41965947     -0.96867361      5.54288472
H           3.23413434     -2.30489256      5.72994166
H           3.50319945     -1.57234281      4.13424773
C           2.17665529     -0.16240534      6.98342392
H           3.13964059      0.15816534      7.44318593
H           1.41932797      0.59629942      7.23102688
H           1.88260247     -1.11335463      7.45696248
N           2.34978730     -0.31724635      5.48836154
O          -0.71486598     -2.29492783      4.49839597
H          -0.64527790     -2.10817374      3.50968303
Cl          6.02870080     -1.61516549      3.37914614
C           6.23021995      3.10054466      4.53541901
H           5.25013690      3.41201296      4.91551697
H           7.00818534      3.59724642      5.12507052
H           6.29621594      3.47063935      3.50230614
C           6.38308813      1.58410911      4.54539033
H           7.37020961      1.25203078      4.13743104
C           6.26574908      1.08146737      6.01011965
O           5.33730428      1.01474131      3.82928222
H           5.61535608     -0.08359854      3.54322119
O           7.50820676      0.95156400      6.56802693
H           7.49475206      0.60232568      7.49693196
O           5.28696597      0.80020596      6.67385670
C           5.54962475     -6.27962862      3.24278584
H           5.19857664     -6.84447968      4.11813220
H           5.06192809     -6.68861091      2.34771578
H           6.62987470     -6.46485383      3.16442606
C           5.27650758     -4.79413654      3.40348103
H           5.83266766     -4.16805648      2.65704969
C           3.77673923     -4.47741417      3.26310181
O           5.66678665     -4.46365703      4.72750011
H           5.81361974     -3.48070378      4.81553497
O           3.24357141     -5.09359773      2.15825440
H           2.27878827     -4.88984682      2.02740272
O           3.06225663     -3.76200251      3.93282178
          92
 Energy =     -0.97379597 a.u.  #Cluster:   16
C           4.00533450      2.53376112      1.32689416
C           3.03574823      1.54903655      1.53976865
C           3.03664475      0.39054325      0.76417023
C           4.02231142      0.22048923     -0.24780796
C           4.99152160      1.20785617     -0.45063798
C           4.97743123      2.36439532      0.34085614
H           4.00459346      3.43109862      1.94177660
H           2.28178222      1.67586977      2.32974244
H           5.73080228      1.07503375     -1.23622599
H           5.72759475      3.13380575      0.17458176
O           4.19081785     -0.89892728     -1.03260264
O           2.20632007     -0.68888654      0.96461318
C           3.00590089     -1.69446546     -1.33507304
H           2.16652851     -1.04029562     -1.61235841
H           3.34306837     -2.29968313     -2.17885606
H           2.74405446     -2.30970056     -0.46074896
C           0.78946558     -0.51608516      1.23056492
H           0.48391994     -1.59424965      1.09183490
C           0.12203406      0.38498275      0.16755263
H           0.62821609      1.37942739      0.09885116
O           0.35883770     -0.14641322     -1.13769893
H          -0.02378228     -1.05493983     -1.22685459
C           0.52605007     -0.10283417      2.68233469
H          -0.56001363     -0.00636639      2.88445584
H           1.04187336      0.83972861      2.96605036
O           1.04016364     -1.08015254      3.59129957
H           0.99034535     -1.99512790      3.16892509
C          -1.35957283      0.53789402      0.43425479
C          -2.28599186     -0.36743083     -0.10998078
C          -1.79166934      1.60319485      1.22284354
C          -3.64756960     -0.17757921      0.10977657
H          -1.92798128     -1.21394456     -0.69915008
C          -3.15591115      1.79033190      1.47404623
H          -1.06680023      2.29629559      1.65056037
C          -4.08988135      0.91376038      0.91511923
H          -3.50126607      2.61336296      2.09603443
O          -5.38390061      1.23623840      1.25439110
O          -4.64835627     -0.98303853     -0.40512659
C          -6.45366561      0.48752981      0.62658671
H          -6.39545526     -0.56635229      0.92166367
H          -7.34347324      0.97635922      1.03896001
H          -6.39974993      0.59124113     -0.46073877
C          -4.24162778     -2.05823503     -1.29066192
H          -5.20469442     -2.50925270     -1.55727730
H          -3.74069088     -1.65508895     -2.17548449
H          -3.60769165     -2.77522963     -0.75519883
C           5.29552818     -5.22791707     -0.87124353
H           4.50176701     -6.00104033     -0.85257666
H           4.85846084     -4.30668122     -1.31019784
C           5.85602342     -5.01882717      0.53752416
H           4.94918591     -4.92494683      1.24129187
H           6.44439515     -5.89546722      0.86397360
C           7.12675433     -3.65670144      2.15133609
H           7.72115747     -2.75034822      2.34048296
H           6.23411579     -3.62255014      2.83673328
H           7.72809465     -4.52660491      2.45363799
C           5.84187056     -2.54312816      0.36623100
H           6.27289583     -1.60055430      0.73154212
H           5.68362842     -2.43118409     -0.72664419
H           4.81102544     -2.63826660      0.80156541
C           7.91613831     -3.77523457     -0.16685006
H           8.44809661     -2.81089717     -0.14222204
H           8.61781140     -4.56431119      0.14365734
H           7.64863396     -3.99419796     -1.22654807
N           6.68186633     -3.74829150      0.70732948
O           6.33994722     -5.58727929     -1.78424694
H           6.53935634     -6.54187135     -1.73156828
Cl         -0.04423697     -3.56386777     -0.53632129
C           1.24016704      5.11399935      3.68611971
H           1.61310618      5.80358976      2.91662754
H           0.83850400      5.72853883      4.50216813
H           2.11392790      4.57803556      4.08474111
C           0.21117075      4.14013767      3.14056521
H          -0.22035397      3.47211484      3.92928766
C          -0.89894238      4.91964630      2.41226539
O           0.77907763      3.21924590      2.21790774
H           1.23602655      3.68396001      1.47005620
O          -2.07678854      4.77377260      3.09393074
H          -2.84394957      5.23395768      2.65388656
O          -0.83349527      5.58026161      1.40617169
C           3.91520983     -2.02642289      3.36575077
H           4.50917965     -1.77103548      2.48229970
H           3.09065829     -1.27858758      3.41908412
H           4.53501949     -1.88771943      4.25711271
C           3.34811380     -3.42714184      3.30056135
H           2.69654295     -3.65864702      4.17277150
C           2.60221293     -3.68903891      1.96574023
O           4.48459797     -4.33086448      3.36050110
H           4.19293433     -5.23667348      3.12425697
O           1.37708165     -3.37141042      1.92910961
H           0.71225042     -3.62805311      0.62071402
O           3.23172601     -4.23063579      1.04060349
          92
 Energy =     -0.97322436 a.u.  #Cluster:   17
C           3.69056879      2.76368460      1.84460788
C           2.58287682      2.39074717      1.07605353
C           2.45280809      1.05526881      0.69084754
C           3.41896201      0.09523331      1.06505632
C           4.52514428      0.47831811      1.83007804
C           4.64800162      1.81525690      2.22143431
H           3.80514332      3.80384426      2.15164801
H           1.83162893      3.12207782      0.77493749
H           5.26639612     -0.26868944      2.11380657
H           5.50550393      2.11953846      2.82343079
O           3.26810307     -1.26219740      0.80366752
O           1.42460042      0.66643809     -0.16064571
C           3.21714144     -1.61481225     -0.61217367
H           4.17631764     -1.37519403     -1.07698097
H           3.04880294     -2.69755546     -0.57415779
H           2.39197560     -1.09351720     -1.11395572
C           0.16141240      0.23966808      0.41625063
H          -0.11249132     -0.57096683     -0.31149317
C          -0.80089685      1.44395658      0.29793093
H          -0.52221246      2.28631501      0.98342393
O          -0.60431220      2.03312082     -1.00919832
H          -0.99252807      1.41342394     -1.73117036
C           0.24539267     -0.31785907      1.83851792
H          -0.76121519     -0.37299023      2.31477423
H           0.92168338      0.26399541      2.49048295
O           0.65749026     -1.68571191      1.79939728
H           1.61781467     -1.73407065      1.49282405
C          -2.23171015      0.99230563      0.46118430
C          -2.76676957      0.06650883     -0.44683579
C          -3.01113667      1.47372785      1.51304035
C          -4.06952144     -0.41109016     -0.27751016
H          -2.18867560     -0.28571496     -1.31037093
C          -4.32940744      1.02858974      1.67519700
H          -2.60624795      2.21689901      2.20539103
C          -4.86441613      0.08703309      0.79550113
H          -4.93082953      1.43412384      2.48754546
O          -6.12556670     -0.46329642      0.90649419
O          -4.41043191     -1.34617069     -1.22107807
C          -7.10078614      0.27114079      1.68909264
H          -7.24782212      1.26991048      1.26642242
H          -7.99700972     -0.35145536      1.56266348
H          -6.79972600      0.31508466      2.73898552
C          -5.58573486     -2.16701043     -0.99642366
H          -5.59316195     -2.78925811     -1.90219371
H          -5.43916001     -2.77929376     -0.09250429
H          -6.48476900     -1.54744886     -0.92291784
C          -4.34635329     -4.85112368      2.42445744
H          -3.66813878     -5.24885876      3.20415271
H          -5.07997603     -4.16397618      2.88709835
C          -3.60839490     -4.24564122      1.25453904
H          -3.28005312     -5.26651242      0.45722236
H          -4.27866303     -3.67342853      0.59293658
C          -1.72615035     -3.08239170      0.22490038
H          -0.78976119     -2.51799150      0.39279664
H          -1.49094728     -3.96841987     -0.40683877
H          -2.42942745     -2.46662229     -0.36281258
C          -1.33804362     -4.42014129      2.23779234
H          -0.38175048     -3.89076124      2.40182507
H          -1.71976712     -4.78050130      3.20483828
H          -1.13500873     -5.32412361      1.61872076
C          -2.59780249     -2.31132338      2.40795948
H          -1.67306633     -1.72020667      2.56556080
H          -3.34765267     -1.64753440      1.94501356
H          -2.98758095     -2.60378989      3.39437820
N          -2.34056240     -3.52525112      1.53793788
O          -5.17302472     -5.92683990      1.96631650
H          -4.66696910     -6.51096240      1.34221972
Cl         -2.62081078     -6.41766343     -0.37284910
C          -3.25052395      6.87323903      0.57659122
H          -2.45891063      7.12862946      1.29250528
H          -2.90467948      7.17840130     -0.42066143
H          -4.12359268      7.49398158      0.82593621
C          -3.62095833      5.40108680      0.61456418
H          -4.40989380      5.13349336     -0.13274019
C          -2.36835849      4.53063191      0.42330206
O          -4.21688646      5.02993117      1.85315802
H          -3.59019983      5.17414187      2.60159420
O          -2.23787671      4.14433613     -0.86021947
H          -1.48651595      3.43052354     -1.00342265
O          -1.58418728      4.19335524      1.28911116
C           0.71902739     -0.94391953     -5.30997627
H          -0.36372039     -1.10993578     -5.19735692
H           0.84293938     -0.04211142     -5.92418697
H           1.11907294     -1.78887555     -5.88997521
C           1.42950768     -0.82389168     -3.97693785
H           2.50463069     -0.52853487     -4.07308278
C           0.67777993      0.15534047     -3.05632426
O           1.49687686     -2.05776852     -3.26999414
H           0.61585812     -2.50993065     -3.25760176
O           1.48458647      1.11171521     -2.56945332
H           1.04922511      1.64182881     -1.77350880
O          -0.50320895      0.09561785     -2.73405964
          92
 Energy =     -0.97304555 a.u.  #Cluster:   18
C           3.97140251      2.13047028      0.15715751
C           2.77002433      1.60876992     -0.32549328
C           2.45003086      0.27992226     -0.03552500
C           3.34714489     -0.53402139      0.68705355
C           4.54749418     -0.00624437      1.17093022
C           4.83778747      1.33754987      0.91830057
H           4.24378152      3.17722149     -0.04529400
H           2.07736637      2.20943655     -0.92447309
H           5.21936462     -0.63614483      1.75041840
H           5.74157068      1.79121035      1.33575687
O           3.03275974     -1.85570924      1.02321992
O           1.28080863     -0.30304936     -0.51679041
C           2.98568923     -2.75244640     -0.12436734
H           3.95028515     -2.74957036     -0.63661730
H           2.78909165     -3.72229261      0.34409890
H           2.17293929     -2.44942772     -0.80089771
C           0.05747103      0.00702675      0.19096864
H          -0.60880442     -0.76213768     -0.28585959
C          -0.45169031      1.44007590     -0.11904773
H           0.11455463      2.21427630      0.45314685
O          -0.14721837      1.79233175     -1.46702696
H          -0.55891167      1.15928902     -2.09695931
C           0.15976401     -0.24271685      1.70034855
H          -0.80735857     -0.05106908      2.21068632
H           0.95998020      0.34810270      2.18134194
O           0.39981593     -1.63905380      1.93816476
H           1.34818131     -1.85480635      1.65349836
C          -1.94132838      1.50006662      0.14480676
C          -2.76717502      0.46805232     -0.33262351
C          -2.49069368      2.55217726      0.87723480
C          -4.12470794      0.45933263     -0.03311277
H          -2.33739397     -0.34127041     -0.93436822
C          -3.86272791      2.57535415      1.15389151
H          -1.86193913      3.36544655      1.23859889
C          -4.68882688      1.53485803      0.71203356
H          -4.30552125      3.39353429      1.72058551
O          -6.00450315      1.70045830      1.07575958
O          -4.99082880     -0.54677686     -0.42076235
C          -6.95428967      0.68384492      0.66716714
H          -6.68857395     -0.27909669      1.11635856
H          -7.89381725      1.07717922      1.07016211
H          -6.97807154      0.61006133     -0.42564937
C          -4.37542904     -1.77919574     -0.88713148
H          -5.24832578     -2.41952869     -1.04309455
H          -3.83174811     -1.60213569     -1.82354927
H          -3.70341487     -2.18569775     -0.11717680
C           8.49620033      5.33201627      2.91848560
H           7.84390840      6.03542457      3.47276214
H           8.33310757      4.31336576      3.33404296
C           8.23607654      5.43168162      1.41887829
H           7.12188859      5.56824573      1.22139232
H           8.68953904      6.35565663      0.99231335
C           8.25614561      4.39977210     -0.81774615
H           8.56553828      3.56398957     -1.45711417
H           7.12549846      4.47052167     -0.84963818
H           8.62235166      5.34624696     -1.24662546
C           8.08900351      2.94742029      1.15181614
H           8.51958134      2.05198721      0.68390568
H           8.20427335      2.87252152      2.25242670
H           6.98116360      2.93284165      0.97127707
C          10.21063833      4.12079173      0.67260659
H          10.58143123      3.19662303      0.20611344
H          10.68767929      4.97651557      0.16605085
H          10.56520516      4.14979799      1.72920907
N           8.70272886      4.22082261      0.61587719
O           9.87988954      5.58514593      3.20471900
H          10.06512894      6.54549874      3.21083205
Cl          5.59065546      4.25590205      2.84888280
C          -1.95581746     -4.76308316     -0.90418852
H          -2.93779526     -4.32328128     -1.13233784
H          -1.63609956     -5.35831503     -1.76652526
H          -2.11334155     -5.44576001     -0.05631835
C          -0.94231135     -3.69261499     -0.53444360
H           0.03203574     -4.12354579     -0.20652939
C          -0.71893496     -2.75506901     -1.74035102
O          -1.51562653     -2.90385245      0.49253963
H          -0.78456638     -2.49385146      1.08801609
O           0.53838024     -2.97160307     -2.25300635
H           0.76509015     -2.36155042     -3.00788761
O          -1.43719325     -1.91904087     -2.23321521
C           3.63079779      6.21816596      0.64869169
H           4.00925149      6.42387155      1.66124900
H           3.07690888      7.09896847      0.30410569
H           2.91922104      5.38668724      0.75599148
C           4.75166538      5.83407453     -0.30801432
H           4.36222902      5.54470210     -1.31717387
C           5.68788378      7.05558607     -0.51710538
O           5.53221527      4.79458080      0.15106633
H           5.43747528      4.60588471      1.39595238
O           5.03185483      8.06078804     -1.18347169
H           5.59503743      8.86122895     -1.34126153
O           6.85524153      7.21335303     -0.22552251
          92
 Energy =     -0.97189046 a.u.  #Cluster:   19
C           4.37320681      3.20741881      2.84235038
C           3.51535032      2.33247124      2.16539328
C           4.04458544      1.19458004      1.55571516
C           5.44045420      0.93517672      1.64418076
C           6.28616500      1.81215133      2.31931785
C           5.74481887      2.95820584      2.91526789
H           3.95832293      4.09844062      3.31616733
H           2.44685545      2.55815491      2.09409238
H           7.35208450      1.59528420      2.37421381
H           6.39979509      3.64976576      3.44246714
O           6.01081726     -0.14843817      0.98011421
O           3.37888046      0.24627184      0.82022721
C           5.65517278     -1.43879432      1.55147960
H           4.56006420     -1.53689883      1.63553007
H           6.06092877     -2.14364560      0.81730425
H           6.13920483     -1.54770570      2.52550084
C           1.92034236      0.14048824      0.76991119
H           1.86260983     -0.69342853      0.02157159
C           1.22575370      1.40887855      0.20508487
H           1.44694970      2.29971520      0.85132429
O           1.80782919      1.74112750     -1.02034028
H           1.51608921      1.07903634     -1.86018282
C           1.44410519     -0.31472068      2.15190283
H           0.40375674     -0.69902109      2.13240896
H           1.53254419      0.47468504      2.91902699
O           2.22166184     -1.44332400      2.57810825
H           3.17286953     -1.29483590      2.33505328
C          -0.27063850      1.17527391      0.10829126
C          -0.77560480      0.29597241     -0.85481852
C          -1.14316070      1.86397190      0.95881431
C          -2.15386324      0.14633654     -1.01835979
H          -0.08728417     -0.25565266     -1.50110873
C          -2.52339011      1.68806074      0.83819346
H          -0.76228464      2.54834007      1.71464557
C          -3.03326218      0.83950868     -0.15037544
H          -3.21850508      2.20179090      1.51219011
O          -4.42503404      0.76452164     -0.13122201
O          -2.73677049     -0.65091458     -1.98132295
C          -5.07279071      0.08416408     -1.23973706
H          -4.81255265     -0.98080689     -1.22575548
H          -6.13349103      0.25463621     -1.02841889
H          -4.76708597      0.54606603     -2.18526260
C          -1.85913639     -1.20017840     -3.00432819
H          -2.57839103     -1.57014104     -3.74155089
H          -1.20909816     -0.42322016     -3.43276163
H          -1.26320546     -2.01027167     -2.57506546
C           5.66547412     -0.70609870     -4.57411701
H           6.07427350     -1.41723208     -3.81658045
H           5.00166998     -1.26065312     -5.26318016
C           4.96027061      0.50515578     -3.96711402
H           5.32753121      1.44007297     -4.44645709
H           3.85047877      0.45150632     -4.19669037
C           4.33233881      1.83973926     -2.00051304
H           4.05410981      1.77803994     -0.92386366
H           4.87231024      2.77623188     -2.17660712
H           3.33328992      1.90612659     -2.50132465
C           6.55781447      0.80082372     -2.05764854
H           6.65171411      0.85689278     -0.95146629
H           7.16878031     -0.06725579     -2.37730990
H           6.99613965      1.70841677     -2.49518665
C           4.57525255     -0.62095240     -1.78884263
H           4.56224788     -0.49994598     -0.68180749
H           3.52376085     -0.82300148     -2.09625061
H           5.19168807     -1.50560196     -2.02047313
N           5.10925076      0.62499036     -2.45208535
O           6.84605440     -0.27200065     -5.27981939
H           6.61075033      0.08286215     -6.16432100
Cl          1.59530772      0.12721136     -3.29806788
C           9.82276230     -0.45752202     -4.08121599
H           8.89983303      0.14419928     -4.11144467
H          10.39843708     -0.16506584     -3.19522989
H          10.41110237     -0.16379718     -4.96378106
C           9.52207099     -1.94681102     -4.12086791
H          10.43852831     -2.58085208     -4.22858308
C           8.75548524     -2.33869806     -2.83984630
O           8.72770042     -2.30927193     -5.22968870
H           7.97418624     -1.64832698     -5.35558514
O           9.58159051     -3.03707863     -2.00615813
H           9.14239983     -3.32095944     -1.15778595
O           7.61227719     -2.10694455     -2.50770375
C          -6.58606333     -0.12652034      5.04283146
H          -6.72165107      0.95642475      5.15859420
H          -7.33724174     -0.47943003      4.32390072
H          -6.81583017     -0.58451059      6.01526684
C          -5.17674406     -0.49395640      4.60549368
H          -5.04338956     -1.59418557      4.45835677
C          -4.81409123      0.28472828      3.33003914
O          -4.21436609     -0.18483496      5.60561303
H          -4.14706306      0.79138909      5.74067100
O          -5.09278729     -0.45148703      2.23102504
H          -4.84828712      0.02213563      1.34356708
O          -4.35006097      1.40197227      3.27042997
          92
 Energy =     -0.97179452 a.u.  #Cluster:   20
C           2.24351275      2.87264402     -0.98030380
C           1.41985924      1.85607288     -1.46691000
C           1.37709039      0.62586510     -0.80027179
C           2.17541722      0.41198283      0.34434902
C           3.00177341      1.43602550      0.82578516
C           3.02380856      2.66573474      0.16341003
H           2.27914188      3.83010175     -1.49614247
H           0.78343849      1.99398588     -2.35335985
H           3.61035542      1.25673417      1.71001395
H           3.66138520      3.46529381      0.53758538
O           2.13424270     -0.74962472      1.10468509
O           0.64025612     -0.41875049     -1.34554713
C           2.46358354     -1.96138610      0.37117761
H           3.53121786     -1.95292985      0.13512161
H           2.22044352     -2.74558865      1.09540608
H           1.85748240     -2.04086603     -0.54050888
C          -0.78447461     -0.47508825     -1.05713585
H          -1.10461417     -1.14630758     -1.89668257
C          -1.49114645      0.89938401     -1.15038788
H          -0.99706655      1.63586795     -0.46942248
O          -1.34357146      1.45666610     -2.43363723
H          -1.72225164      0.75188745     -3.26096910
C          -0.98365888     -1.14750433      0.31084103
H          -1.93384373     -0.86231117      0.80116959
H          -0.13431703     -0.94307071      0.99410575
O          -1.13319758     -2.56268362      0.13797305
H          -0.30061790     -2.94341940     -0.21218444
C          -2.97917064      0.79386230     -0.83950481
C          -3.76136661     -0.17671012     -1.47909940
C          -3.57986317      1.73473908      0.00364950
C          -5.15085204     -0.15018591     -1.35532002
H          -3.27563889     -0.93478710     -2.10356473
C          -4.96826999      1.74992589      0.16503018
H          -2.97099217      2.46303306      0.53726876
C          -5.76120923      0.83188169     -0.53139243
H          -5.45073997      2.47291321      0.82135569
O          -7.11826516      1.07190038     -0.40559960
O          -6.01053603     -0.99922317     -2.02034802
C          -8.02577510     -0.04382143     -0.59711567
H          -7.76735036     -0.85965827      0.08184730
H          -8.99307049      0.41005439     -0.34375283
H          -7.99283256     -0.37663811     -1.64225442
C          -5.40731793     -1.97875129     -2.91141066
H          -6.29034652     -2.42606030     -3.37885546
H          -4.76630373     -1.48336174     -3.65626729
H          -4.84510097     -2.71328861     -2.32671117
C          -6.45182227      4.60116140     -4.87116445
H          -6.90285554      5.60634906     -4.95014831
H          -6.16787560      4.24338932     -5.89151671
C          -5.28212693      4.60832826     -3.88135645
H          -4.65216552      5.50991339     -4.04660169
H          -5.69599189      4.69022054     -2.84076506
C          -3.33877101      3.48668173     -2.89027810
H          -2.63749978      2.57443634     -2.88242091
H          -2.68541560      4.35369559     -3.04300887
H          -3.76526781      3.51979766     -1.87703669
C          -3.73736264      3.25186417     -5.30457891
H          -3.08686493      2.34110383     -5.34991412
H          -4.48043638      3.13358013     -6.12032888
H          -3.10045883      4.11860692     -5.52610821
C          -5.22869424      2.12767822     -3.69331861
H          -4.58779417      1.21346696     -3.67374447
H          -5.75343593      2.18465328     -2.72606636
H          -5.99221049      1.97407620     -4.47711142
N          -4.39888923      3.36126687     -3.95227777
O          -7.44471197      3.66129671     -4.44962646
H          -7.88923322      3.96947459     -3.60829578
Cl         -2.59457062      0.04148223     -4.45017860
C          -6.12901340     -0.27567855     -7.99764899
H          -5.12137352      0.13691467     -7.83565803
H          -6.39883614     -0.82382215     -7.08441003
H          -6.04450004     -1.01436392     -8.80885797
C          -7.15668352      0.78399703     -8.35217101
H          -8.20117592      0.38570845     -8.39801688
C          -7.05813531      1.94332904     -7.34457785
O          -6.96330115      1.32065987     -9.65220833
H          -6.04968228      1.68309490     -9.75525187
O          -8.09883831      1.92705467     -6.48195000
H          -8.05458277      2.65470814     -5.76172509
O          -6.18390722      2.78651116     -7.27701315
C          -7.75212443      4.08123330      0.42228668
H          -7.97784513      5.12417704      0.67372273
H          -8.20467122      3.43856446      1.19524845
H          -6.66068882      3.94503809      0.51184721
C          -8.22407114      3.68908487     -0.96267944
H          -7.78296717      2.70877480     -1.30714083
C          -9.75403335      3.67374414     -1.02783640
O          -7.77453913      4.62918637     -1.95193135
H          -8.24172125      5.49773247     -1.84387308
O         -10.25324575      2.45883259     -0.65779033
H         -11.25230926      2.42536713     -0.68261235
O         -10.47850106      4.58069093     -1.36353638
          92
 Energy =     -0.97030420 a.u.  #Cluster:   21
C           3.47129277      2.15031570     -0.93408978
C           2.44940710      1.23113955     -1.18562115
C           2.50574386     -0.03936417     -0.60152209
C           3.60929000     -0.39167861      0.20921295
C           4.64088686      0.52464648      0.43776064
C           4.55750544      1.80225690     -0.12356031
H           3.42031745      3.14589528     -1.37649468
H           1.60148603      1.49245856     -1.82789610
H           5.48065883      0.23291751      1.06963649
H           5.34164981      2.53198292      0.07646367
O           3.66012348     -1.60277688      0.89118598
O           1.56266699     -1.00716586     -0.90141388
C           3.98905933     -2.74662137      0.05524402
H           4.98794192     -2.61153116     -0.38126637
H           3.98083517     -3.56979465      0.77964823
H           3.21690628     -2.87355607     -0.71798630
C           0.23224263     -0.91789061     -0.28283118
H          -0.18290624     -1.89260499     -0.66021423
C          -0.56901308      0.28087618     -0.84712028
H           0.03634573      1.22001188     -0.81360031
O          -0.75060474      0.08912954     -2.25001450
H          -1.47472293     -0.58952902     -2.42983792
C           0.32646311     -0.89641693      1.24767774
H          -0.68503711     -0.96686689      1.70506767
H           0.83891670      0.00616175      1.62301974
O           0.98746274     -2.06456867      1.72462633
H           1.95652109     -2.00987391      1.49370083
C          -1.89531059      0.45475627     -0.14177880
C          -2.86717528     -0.55060683     -0.24881064
C          -2.17347136      1.62126992      0.57331541
C          -4.13229447     -0.37330227      0.30195985
H          -2.62873597     -1.47980514     -0.78123103
C          -3.42905484      1.79809376      1.16591479
H          -1.42656369      2.40629504      0.67107668
C          -4.41993590      0.81816538      1.02781525
H          -3.65980512      2.70053064      1.72937837
O          -5.59648722      1.15002097      1.65981723
O          -5.15376523     -1.29577312      0.19574553
C          -6.73621609      0.27449358      1.46402768
H          -6.52195995     -0.71493092      1.88437453
H          -7.52012093      0.79427242      2.02423723
H          -6.97592958      0.20085906      0.39812114
C          -4.93153716     -2.41292930     -0.71246813
H          -5.90461668     -2.91106353     -0.69620879
H          -4.67273826     -2.05551374     -1.71758742
H          -4.13431386     -3.05951073     -0.32881489
C           3.69161989     -2.24659296     -3.76994722
H           3.52851257     -1.19416810     -4.08163294
H           3.76958827     -2.29089358     -2.66095737
C           2.66240309     -3.22781962     -4.35117882
H           2.62701039     -3.11113429     -5.45920585
H           3.00758485     -4.27037367     -4.16511215
C           0.31096650     -3.89639716     -4.58666510
H          -0.73670331     -3.82840055     -4.14379178
H           0.21957327     -3.54656644     -5.62346076
H           0.58166567     -4.95878709     -4.57358884
C           0.84779705     -1.59864022     -3.87147228
H          -0.26456014     -1.49084519     -3.76538111
H           1.23460512     -0.98946248     -3.02105525
H           1.13479743     -1.13587534     -4.82199111
C           1.23620148     -3.50496594     -2.33912822
H           0.23655078     -3.27396159     -1.87244077
H           1.38287317     -4.58851533     -2.24304517
H           1.98701260     -2.97116259     -1.71296325
N           1.26161680     -3.04563028     -3.77638555
O           4.99112458     -2.65009704     -4.20032649
H           5.11143757     -2.58327324     -5.19517017
Cl         -2.03366926     -2.85554958     -2.65354592
C           5.56430062     -6.32689203     -5.18249941
H           4.57610271     -5.86551854     -5.28794044
H           5.69126075     -7.03544670     -6.01380142
H           5.54623548     -6.92069251     -4.25371211
C           6.69330976     -5.31035698     -5.12738521
H           7.70696045     -5.79104833     -5.09921466
C           6.58217426     -4.38414718     -6.35544223
O           6.66254000     -4.55319524     -3.93584398
H           5.76028281     -4.09254033     -3.78138774
O           7.39945693     -4.83675508     -7.34441402
H           7.36880011     -4.27438286     -8.17241338
O           5.87993294     -3.41055004     -6.54744972
C           7.30347619      0.93339996     -2.27268876
H           7.02414276      0.71623347     -1.23177227
H           8.38232593      0.75012879     -2.36785622
H           7.13615714      2.00718527     -2.43817280
C           6.50480301      0.11043934     -3.26708569
H           6.79841007      0.29932135     -4.32943595
C           6.63414579     -1.38599896     -2.92699624
O           5.11974576      0.43695852     -3.25670121
H           4.76049819      0.43336168     -2.33365470
O           7.47368464     -1.99278907     -3.80805745
H           7.48250152     -3.01305583     -3.71921846
O           6.11190464     -1.99236650     -2.01654235
          92
 Energy =     -0.96978811 a.u.  #Cluster:   22
C           2.61952206      3.04196086      0.54127782
C           1.72727472      2.14243116     -0.05112159
C           1.90788783      0.77402287      0.15642116
C           2.99056970      0.31688958      0.94131460
C           3.89317858      1.21412283      1.51307608
C           3.69089647      2.58443494      1.31640949
H           2.46117831      4.11482981      0.40904367
H           0.89582081      2.50620271     -0.67441049
H           4.72492878      0.84324392      2.10757403
H           4.37329104      3.30011063      1.77285589
O           3.12163292     -1.03810193      1.26237314
O           1.13730078     -0.19958144     -0.46595418
C           3.48008657     -1.88518074      0.13135438
H           4.46787870     -1.59885251     -0.23674556
H           3.48947727     -2.88376199      0.57994452
H           2.71597337     -1.79773304     -0.65311255
C          -0.24454972     -0.37835249     -0.05278393
H          -0.46328145     -1.33164363     -0.59862584
C          -1.12615708      0.76802265     -0.60255683
H          -0.55939794      1.73946799     -0.58644200
O          -1.40318429      0.41194490     -1.96475525
H          -1.27102534      1.21397130     -2.54180342
C          -0.35043473     -0.53385341      1.46702263
H          -1.37310608     -0.82099392      1.78348231
H          -0.03511849      0.38783556      2.00490064
O           0.45444384     -1.62574587      1.94242529
H           1.40372715     -1.51243327      1.61526014
C          -2.44690859      0.91847143      0.12480115
C          -3.59682367      0.30617730     -0.39132171
C          -2.52769597      1.70343604      1.28103345
C          -4.82961399      0.50237060      0.23313631
H          -3.50307684     -0.29363986     -1.30065365
C          -3.74919945      1.87678437      1.93383855
H          -1.63074807      2.19114777      1.68038755
C          -4.91030887      1.29101069      1.40977686
H          -3.82335671      2.45466984      2.85448436
O          -6.06051223      1.64384904      2.08568820
O          -6.03321583      0.01459388     -0.24987738
C          -7.17118612      0.71255144      2.03322108
H          -6.84227742     -0.29193778      2.31266195
H          -7.85764411      1.13406833      2.77584288
H          -7.60711981      0.71645530      1.02715430
C          -5.95898058     -1.11867878     -1.15255215
H          -7.01761959     -1.36897560     -1.28884028
H          -5.50067753     -0.81684314     -2.09951189
H          -5.41279324     -1.94405998     -0.68560385
C          -2.37368029      6.15619230     -0.88414710
H          -1.86961477      5.38912260     -0.26308080
H          -1.95629474      6.13960043     -1.91063170
C          -3.90748675      6.05172130     -0.84660056
H          -4.23490151      5.95664408      0.21565368
H          -4.33107825      7.01725411     -1.21290022
C          -5.98146966      4.89632602     -1.49232501
H          -6.44502040      4.07119976     -2.06307484
H          -6.26523105      4.73962296     -0.43509203
H          -6.43192625      5.84071565     -1.83507369
C          -3.92652907      3.59306092     -1.16372005
H          -4.39867359      2.71462333     -1.61574190
H          -2.76634901      3.48057425     -1.47162741
H          -3.96459067      3.49202609     -0.07438626
C          -4.14295366      5.06082840     -3.12396973
H          -4.58166250      4.25094337     -3.73104712
H          -4.47936668      6.02999783     -3.51611601
H          -3.03721178      4.98532032     -3.28942369
N          -4.47199407      4.89014074     -1.65798359
O          -2.15684806      7.46694112     -0.31808317
H          -1.19783797      7.60161754     -0.16500280
Cl         -1.15063545      3.64584951     -2.18820406
C          -1.11996771      4.19461062      3.29070493
H          -1.06890404      3.36674322      4.01431029
H          -1.92241117      4.86902564      3.60841387
H          -1.42087457      3.74067362      2.32604053
C           0.20759103      4.91176003      3.12763187
H           0.13674129      5.82633545      2.48639789
C           0.75031961      5.29962040      4.51912869
O           1.18979472      4.12965639      2.49617513
H           1.15370518      3.15923180      2.80639004
O           0.49925504      6.61936427      4.76733555
H           0.83331557      6.92671449      5.65497889
O           1.32867640      4.63686611      5.35622594
C           2.86315551     -0.93955501      4.48981420
H           2.92415942     -0.94216804      3.38858890
H           3.73534106     -0.38899285      4.86327143
H           2.96811922     -1.98652813      4.80731602
C           1.55695548     -0.35962359      5.00346159
H           1.49409557     -0.36607103      6.12272116
C           1.42348446      1.10120202      4.50894906
O           0.42299225     -1.08334964      4.60325153
H           0.48007633     -1.36825271      3.61959962
O           1.87122220      1.94002206      5.46974090
H           1.76329343      2.93466428      5.27050400
O           0.97901835      1.53078457      3.45779473
          92
 Energy =     -0.96849309 a.u.  #Cluster:   23
C           2.47611677      0.90252203      5.22597201
C           2.19736544      0.83115436      3.85709090
C           2.26319752     -0.40957991      3.21642401
C           2.60108303     -1.56213174      3.95471569
C           2.89406805     -1.48707679      5.31999543
C           2.82284266     -0.24215484      5.94973649
H           2.42555792      1.87063293      5.72962091
H           1.93348955      1.73784175      3.28957119
H           3.15721082     -2.40161692      5.85987677
H           3.04201878     -0.16753272      7.01599180
O           2.53549871     -2.81423092      3.34110496
O           2.13788466     -0.56131442      1.84398907
C           3.79304191     -3.25153541      2.75702394
H           4.57672934     -3.25208367      3.52219415
H           3.56209617     -4.28503853      2.44305560
H           4.04051670     -2.61388467      1.90461248
C           0.82787363     -0.36652746      1.22167870
H           1.08111522     -0.73012123      0.19582336
C           0.44427699      1.13914345      1.17982899
H           0.62170175      1.61474742      2.18067370
O           1.29760505      1.73417105      0.23909668
H           1.70890509      2.72781451      0.69664462
C          -0.22681843     -1.24292331      1.90154231
H          -1.18097906     -1.25569162      1.33341798
H          -0.42170735     -0.92954803      2.94496786
O           0.17324951     -2.61841870      1.92823819
H           1.11629800     -2.69507726      2.27081068
C          -1.00297768      1.30935511      0.75806678
C          -1.36582472      1.12949543     -0.58417989
C          -1.96820016      1.63949884      1.71518909
C          -2.70812472      1.26788950     -0.95102073
H          -0.61167344      0.90885095     -1.33992328
C          -3.30607086      1.79822490      1.35073110
H          -1.67754574      1.79892904      2.75452229
C          -3.67878565      1.61736899      0.01117525
H          -4.06591879      2.06552801      2.08222324
O          -5.03430835      1.72022354     -0.28309001
O          -3.00266977      1.13724634     -2.30525474
C          -5.34716127      2.78443541     -1.22683372
H          -4.77711798      2.66299817     -2.15369217
H          -6.42116929      2.64375355     -1.38718431
H          -5.13390680      3.74917697     -0.75673034
C          -3.91396732      0.04412884     -2.60403435
H          -4.10764274      0.18868339     -3.67228606
H          -3.40777640     -0.90660888     -2.41422716
H          -4.83386451      0.12800567     -2.01391050
C           3.74704252      2.08742565     -1.14335988
H           2.67786801      2.09323030     -1.45498580
H           4.01877741      3.11510107     -0.81291104
C           3.96154227      1.03356340     -0.05662604
H           3.08861747      1.13259932      0.68147319
H           3.86729378      0.01170085     -0.47587683
C           5.31211699      0.13873571      1.80882944
H           6.27504692      0.14678854      2.34361449
H           4.51371762      0.35006256      2.55264197
H           5.12562757     -0.88286798      1.43460740
C           5.45975285      2.53313261      1.28820924
H           6.48719344      2.72006562      1.62275295
H           5.16904036      3.33189641      0.56980633
H           4.77396003      2.68712615      2.15510820
C           6.43368672      0.87028008     -0.25416143
H           7.41042052      1.03697775      0.22280145
H           6.40090666     -0.16697063     -0.62412551
H           6.36872439      1.52568308     -1.15644323
N           5.28639468      1.15825639      0.68914201
O           4.61063223      1.84163183     -2.26355928
H           4.19214779      1.21959445     -2.89224834
Cl          2.59696840      3.71657100      1.60135910
C           2.35333657     -4.40363373     -0.41339647
H           2.41877819     -3.42608933      0.08221707
H           3.27158958     -4.96172265     -0.18317481
H           2.33317725     -4.21250704     -1.49486772
C           1.10493001     -5.17322501      0.00818438
H           0.91761953     -6.06721707     -0.63996017
C           1.26449535     -5.63364025      1.46780822
O          -0.06130062     -4.39851679     -0.14963138
H          -0.08422103     -3.64139185      0.52532463
O           0.09404191     -5.65282925      2.13060253
H           0.21598310     -5.87590673      3.13268314
O           2.30793548     -5.94556475      2.03423269
C          -0.29165259     -3.40957556      4.97371960
H           0.39092843     -2.55151768      5.03235156
H          -0.37326107     -3.66991677      3.90234964
H          -1.28431680     -3.05745029      5.28987183
C           0.16438826     -4.57648877      5.83152135
H          -0.56991651     -5.42228947      5.83865811
C           1.54169613     -5.05163599      5.34328287
O           0.26177550     -4.23297088      7.20525417
H           0.88743581     -3.48243500      7.34056580
O           1.36803754     -6.01138981      4.37447338
H           2.19721997     -6.21217840      3.79892725
O           2.64477868     -4.70705062      5.68633012
          92
 Energy =     -0.96689293 a.u.  #Cluster:   24
C           2.69673047      2.92193686      1.82532091
C           2.40308057      2.02003491      0.79858799
C           2.69979219      0.66475880      0.97205760
C           3.30790720      0.22145916      2.16755518
C           3.60728381      1.12990118      3.18830870
C           3.28833249      2.47927875      3.01336489
H           2.45743755      3.97802436      1.69962708
H           1.94347626      2.35844641     -0.12934020
H           4.07650265      0.76932782      4.10364488
H           3.50545977      3.19028161      3.81132562
O           3.55608479     -1.12200954      2.43998354
O           2.52377475     -0.22523138     -0.08039123
C           4.50117528     -1.75252467      1.52126756
H           5.43831142     -1.17982803      1.50499096
H           4.63664495     -2.74009626      1.97221482
H           4.05849855     -1.80545523      0.52000966
C           1.23346320     -0.88111469     -0.23913098
H           1.57115082     -1.82634489     -0.73872902
C           0.38962811     -0.03465813     -1.24591838
H           1.02164733      0.78552132     -1.66887753
O           0.13208227     -0.83837718     -2.39082789
H          -0.41009824     -1.64952548     -2.15399438
C           0.51910373     -1.17810199      1.07719705
H          -0.51314239     -1.55078247      0.90859443
H           0.47063975     -0.28900076      1.74534859
O           1.12362609     -2.27295272      1.77647154
H           2.02706506     -1.99160467      2.12474582
C          -0.88384759      0.49604168     -0.61935339
C          -2.02171615     -0.31530965     -0.55853690
C          -0.89707534      1.75468781      0.00053480
C          -3.11178828      0.05949591      0.22827044
H          -2.06391047     -1.26772393     -1.10997831
C          -1.99786718      2.15989038      0.75570507
H          -0.03400550      2.41802535     -0.08206844
C          -3.08775318      1.29011721      0.91551104
H          -2.00649098      3.12052741      1.27197859
O          -3.99403340      1.68382001      1.89133898
O          -4.22305598     -0.78401897      0.28502798
C          -5.40272862      1.47869512      1.59643779
H          -5.60395495      0.42076344      1.38725312
H          -5.88197864      1.81191604      2.52375991
H          -5.68712689      2.10855764      0.74941295
C          -4.04204903     -1.90109414      1.20419553
H          -4.98558033     -2.44524346      1.10317724
H          -3.18757559     -2.51155950      0.89898979
H          -3.90761588     -1.52696095      2.22815086
C          -1.67123235     -3.92148933     -2.87345353
H          -1.00056202     -4.79971549     -2.81757540
H          -1.35205172     -3.27587183     -3.71438351
C          -3.09620047     -4.33724926     -2.93228688
H          -3.13438770     -5.39881678     -3.89464907
H          -3.43450294     -4.89692486     -2.05926915
C          -5.45606065     -3.99620817     -3.46782671
H          -6.22991768     -3.29680452     -3.81397535
H          -5.43772514     -4.86431625     -4.16505008
H          -5.75562306     -4.39302137     -2.48428079
C          -3.73262828     -2.84235515     -4.78770235
H          -4.49309576     -2.15712742     -5.18743617
H          -2.76038740     -2.31867980     -4.78279687
H          -3.63158277     -3.69760141     -5.49285879
C          -4.17594264     -2.14953059     -2.46923809
H          -4.80359808     -1.34170656     -2.86652104
H          -4.57110427     -2.43042874     -1.47700554
H          -3.15978856     -1.73662388     -2.26757162
N          -4.08975552     -3.33945316     -3.40039522
O          -1.40620321     -3.07182096     -1.71076148
H          -1.16851683     -3.60515191     -0.93067635
Cl         -3.35627893     -6.33628046     -5.01690670
C          -0.18000196     -1.60563030      5.28355219
H           0.66572943     -1.11791623      4.77493634
H          -0.43714431     -0.98495790      6.15046787
H           0.18528752     -2.57081164      5.66197516
C          -1.36398085     -1.81060543      4.35526145
H          -2.26061824     -2.23471561      4.87197521
C          -1.72652406     -0.46506427      3.68668434
O          -1.10427556     -2.74495129      3.32631470
H          -0.17305416     -2.63054663      2.93776532
O          -3.06844100     -0.23313062      3.79685061
H          -3.37843233      0.59880932      3.29286691
O          -1.00930039      0.32345503      3.11533329
C           4.93321253      0.79846635     -1.79987646
H           4.66227339      1.85249894     -1.66102553
H           4.97579233      0.60358381     -2.87912903
H           4.08769723      0.20370628     -1.40040594
C           6.22420302      0.42264746     -1.10070159
H           6.52305999     -0.64198609     -1.27478801
C           7.34362521      1.38117549     -1.54266104
O           6.12353928      0.49770951      0.31538381
H           5.79537108      1.38298836      0.60738826
O           8.14366630      0.75351316     -2.46456951
H           8.88898317      1.32585489     -2.79079464
O           7.56814148      2.51657104     -1.20423285
          92
 Energy =     -0.96653002 a.u.  #Cluster:   25
C           3.41276021      2.89390745      0.64642109
C           2.29233631      2.18959832      0.19808960
C           2.42169185      0.83104031     -0.10310397
C           3.66687603      0.18690792      0.05058728
C           4.78994188      0.89702165      0.48292422
C           4.64966439      2.25432735      0.78896401
H           3.31523891      3.95128628      0.89827304
H           1.31236116      2.67767185      0.09260488
H           5.74471394      0.38935208      0.58905472
H           5.51295828      2.81607771      1.14418208
O           3.80919407     -1.19382311     -0.10843448
O           1.36391189      0.09596833     -0.63206590
C           3.58778556     -1.68155303     -1.46215904
H           4.32854508     -1.24371741     -2.13436469
H           3.73519745     -2.76235195     -1.34383609
H           2.56407643     -1.43713724     -1.77605316
C           0.33319105     -0.34424736      0.30204640
H          -0.12661168     -1.15307097     -0.31754510
C          -0.64765352      0.83446270      0.55631434
H          -0.35122445      1.46287035      1.44251548
O          -0.58298357      1.76716596     -0.52584889
H          -0.26593037      1.32967193     -1.34906894
C           0.89439186     -0.89289934      1.60766916
H           0.07457167     -1.14269905      2.32775501
H           1.59749093     -0.18138677      2.09767405
O           1.57235301     -2.14398307      1.42057486
H           2.36222704     -1.99688894      0.82910017
C          -2.05109577      0.29240867      0.71536238
C          -2.82959758      0.01190623     -0.41391525
C          -2.55438715      0.05512481      2.00317208
C          -4.11952684     -0.50122456     -0.24715106
H          -2.45921005      0.20808303     -1.41883750
C          -3.84603632     -0.44604568      2.17315331
H          -1.94584491      0.27733330      2.89311912
C          -4.63619182     -0.71579604      1.04926320
H          -4.24952672     -0.62545563      3.17056982
O          -5.89089474     -1.27465792      1.27487018
O          -4.86622232     -0.68814836     -1.40706485
C          -6.99108947     -0.44014247      0.81676646
H          -6.86684939     -0.18493256     -0.24195331
H          -7.85908058     -1.08629549      0.97835948
H          -7.04069866      0.45946157      1.43692502
C          -5.29399236     -2.06074380     -1.61903503
H          -5.94449393     -1.96953025     -2.49465014
H          -4.42006893     -2.68094048     -1.83375161
H          -5.84000621     -2.43579984     -0.74557514
C          -0.43052715     -1.82390613      4.77264078
H          -0.04167785     -1.77353622      3.73049115
H          -1.13107633     -2.67435164      4.86605338
C           0.71943178     -1.95917238      5.81635151
H           0.74656274     -0.99560359      6.38574130
H           0.46018591     -2.75005132      6.54899722
C           3.02081114     -2.62852858      6.38812008
H           4.05116052     -2.82674236      6.02487547
H           3.06938099     -1.83903173      7.15258774
H           2.69306861     -3.57271199      6.86898719
C           2.68129490     -1.02168481      4.56765009
H           3.73352365     -1.17652458      4.26832385
H           2.12226581     -0.76052855      3.63948861
H           2.60528368     -0.11864653      5.20304257
C           2.05381478     -3.38618736      4.26101491
H           3.07599282     -3.70839963      3.97421144
H           1.53373544     -4.26172521      4.67999279
H           1.54838310     -3.08747910      3.31202213
N           2.10522088     -2.24134171      5.24456037
O          -1.16905149     -0.68386386      5.07563905
H          -0.61156436      0.23192140      4.71471234
Cl          0.50523407      1.20654390      3.95450840
C           6.74905252     -3.11790929      1.53853217
H           7.20855109     -3.93395861      2.10856051
H           6.86371726     -3.35075592      0.46893407
H           7.34582771     -2.21230137      1.73220404
C           5.29748891     -2.87766404      1.90416728
H           4.83828704     -2.01857849      1.32737056
C           4.47865097     -4.15969409      1.66981041
O           5.12015832     -2.49619071      3.25421843
H           5.66786612     -3.05072476      3.88565695
O           4.15742109     -4.33245785      0.36325078
H           3.58920574     -5.14507347      0.20495900
O           4.11468689     -4.98526330      2.49385648
C           6.58237280     -4.97124334      6.65151223
H           6.16686904     -4.18063590      7.29273773
H           6.98295239     -5.76244469      7.30192771
H           7.42609019     -4.52234240      6.10841355
C           5.54798083     -5.51710520      5.68452470
H           5.96851544     -6.27851544      4.98491491
C           4.35696662     -6.11682240      6.45087549
O           5.05522178     -4.40087402      4.94922574
H           4.50415496     -4.69615093      4.14115310
O           4.69308385     -7.36564611      6.90190534
H           3.95948174     -7.80737824      7.41401866
O           3.26261437     -5.65783465      6.67083774
          92
 Energy =     -0.96480160 a.u.  #Cluster:   26
C           1.79026868      3.73334080      0.74942603
C           1.11699891      2.70496726      0.07655654
C           1.44992653      1.37559330      0.33254050
C           2.48940981      1.07048924      1.25812145
C           3.15829442      2.10130217      1.92351830
C           2.80186186      3.42994123      1.66055809
H           1.53556789      4.76992260      0.53825937
H           0.34800114      2.93077751     -0.66583990
H           3.95196268      1.88896505      2.64005042
H           3.33664216      4.23208724      2.17080581
O           2.76113259     -0.27109296      1.38486918
O           0.91488931      0.33880904     -0.41165077
C           3.67246772     -0.67319568      2.44390002
H           3.30188108     -0.34574370      3.42140432
H           3.64032227     -1.76805480      2.35445578
H           4.67649506     -0.29148294      2.23724851
C          -0.44112997     -0.11295113     -0.15861426
H          -0.43997720     -1.00808141     -0.84471906
C          -1.46813801      0.92243096     -0.67792398
H          -0.93862345      1.83435346     -1.05397024
O          -2.04904351      0.24673231     -1.81253542
H          -2.65950462      0.84632537     -2.28873078
C          -0.64079595     -0.54391497      1.29865600
H          -1.64182898     -0.98940663      1.45857233
H          -0.49593990      0.29452052      2.01424909
O           0.25357226     -1.60819276      1.61769915
H           1.18893120     -1.29979451      1.46019134
C          -2.55867032      1.28471989      0.30877573
C          -3.68645078      0.45137482      0.40147582
C          -2.44066916      2.42665137      1.10845259
C          -4.68631725      0.77472051      1.31433097
H          -3.75834826     -0.42535355     -0.24453959
C          -3.43715276      2.74822111      2.03993841
H          -1.55987127      3.06404023      1.03656430
C          -4.54182983      1.91144625      2.14880242
H          -3.35119594      3.62671499      2.68548188
O          -5.52434481      2.06671148      3.13121990
O          -5.87413109      0.10816530      1.50818617
C          -6.37058745      3.24820668      2.96174414
H          -6.72236296      3.31431816      1.93018967
H          -7.20835600      3.02812441      3.64643406
H          -5.80166269      4.13451561      3.26473254
C          -5.94552610     -1.26856022      1.04879057
H          -6.90539276     -1.59281688      1.47323712
H          -5.96493124     -1.28938945     -0.04427564
H          -5.11664061     -1.85392562      1.45872359
C           0.51729715      1.70016681      4.14727554
H           1.30033432      1.01587851      3.76488208
H          -0.16287846      1.13005884      4.80825967
C           1.13252264      2.90626983      4.78008693
H           2.11057406      2.43549595      5.62623047
H           1.75645633      3.48961687      4.09832396
C           1.03778991      4.88885763      6.21390960
H           0.41437214      5.53033676      6.85460554
H           1.86503672      4.47819907      6.83753393
H           1.50797569      5.51378786      5.43917040
C          -0.37717132      2.95147026      6.72733604
H          -0.97953250      3.58664434      7.40003135
H          -1.02072069      2.14585960      6.33403531
H           0.42426444      2.46482378      7.32650899
C          -0.87679476      4.35580129      4.75779444
H          -1.64241425      4.86240872      5.37069196
H          -0.48168557      5.07355170      4.02525902
H          -1.38660674      3.55676535      4.17163219
N           0.23161315      3.76023765      5.60067894
O          -0.35128685      2.04794740      3.03848772
H           0.14420217      2.58158260      2.38150823
Cl          3.10514296      2.05923881      6.70877264
C          -9.61339678     -1.59892633      4.88765549
H         -10.37102928     -1.02215975      4.34203612
H          -9.12145915     -2.26646383      4.16806981
H         -10.15095607     -2.22893863      5.61151369
C          -8.60689691     -0.71325023      5.60558303
H          -7.80180449     -1.29904266      6.11471788
C          -8.00896862      0.29680685      4.61158081
O          -9.20336007      0.01058451      6.67302836
H          -9.84819211      0.67671881      6.33059978
O          -6.92032121     -0.22501772      4.00400735
H          -6.48113304      0.39952842      3.31323025
O          -8.42630562      1.40866331      4.36943014
C          -5.06537478      4.35315541      8.00020633
H          -5.57052359      5.19915630      7.51645188
H          -5.79904784      3.53367334      8.06370465
H          -4.83325144      4.65941953      9.03075907
C          -3.80907583      3.91575335      7.27223883
H          -3.32761580      3.02418286      7.74610110
C          -4.12268240      3.64493608      5.79117621
O          -2.77940992      4.90401528      7.31725994
H          -3.12437305      5.78128859      7.02393827
O          -4.50386113      2.36629811      5.61701905
H          -4.80693178      2.15591920      4.64221747
O          -4.03567105      4.43510776      4.87274623
          92
 Energy =     -0.96244686 a.u.  #Cluster:   27
C           3.87256397      2.07508923     -0.26924424
C           2.58932756      1.66585246     -0.64182743
C           2.19441501      0.35090981     -0.38106815
C           3.07863849     -0.55723342      0.24232013
C           4.36492679     -0.13825555      0.60796104
C           4.75005124      1.18021369      0.35484859
H           4.19023027      3.09835835     -0.46558234
H           1.90054671      2.35378218     -1.13025408
H           5.03826711     -0.84592450      1.09172136
H           5.74768525      1.51276666      0.64380065
O           2.71521953     -1.83210343      0.63832791
O           0.96323887     -0.11830476     -0.82426045
C           2.13890140     -2.68688131     -0.39487561
H           2.85716295     -2.81696769     -1.20550088
H           1.97572575     -3.62058320      0.15846076
H           1.18844260     -2.26748530     -0.75697359
C          -0.20924501      0.08995877      0.02462860
H          -0.78182428     -0.86471060     -0.22545734
C          -0.89268260      1.35912900     -0.54214761
H          -0.41090741      2.28524061     -0.14913371
O          -0.68007736      1.39639903     -1.97707997
H           0.15612524      0.88152715     -2.18262086
C           0.06351807      0.20109470      1.52425433
H          -0.84497164      0.54818800      2.06282563
H           0.90525470      0.88109232      1.75082889
O           0.30706801     -1.07560351      2.10424169
H           1.13893797     -1.47268139      1.72071658
C          -2.39030810      1.39324535     -0.34851353
C          -3.12862868      0.21160358     -0.25326955
C          -3.04964922      2.63186665     -0.33275020
C          -4.52248477      0.25188728     -0.17669848
H          -2.61603703     -0.77995147     -0.29024335
C          -4.43925323      2.68828143     -0.22276085
H          -2.48346647      3.55974125     -0.41593615
C          -5.18419471      1.50417595     -0.13523190
H          -4.95979875      3.64829169     -0.22129442
O          -6.55436743      1.70566323     -0.11147715
O          -5.31232175     -0.87512725     -0.24912470
C          -7.35930499      0.69535129      0.55477988
H          -7.26735822     -0.26629051      0.03072290
H          -7.04915426      0.60187176      1.59830934
H          -8.36829207      1.11213288      0.46081080
C          -4.74401081     -2.11701521      0.26607090
H          -5.33253782     -2.88379853     -0.25629725
H          -3.67795039     -2.22524097      0.00429898
H          -4.89440834     -2.13861996      1.34643360
C          -1.76233612     -1.71530976     -2.66998778
H          -1.17232546     -2.39308554     -3.31487569
H          -1.29797449     -0.70614997     -2.65488285
C          -3.24030760     -1.66178346     -3.15409072
H          -3.51773945     -2.63585026     -3.62212062
H          -3.89149804     -1.58452182     -2.24417327
C          -5.03483349     -0.60191451     -4.46221021
H          -5.36937213      0.30437021     -5.00198930
H          -5.25915575     -1.46553553     -5.12193412
H          -5.65719446     -0.71595256     -3.55518815
C          -2.74905567     -0.65691286     -5.37639575
H          -3.02381959      0.11017651     -6.11920564
H          -1.66993970     -0.55108002     -5.16477171
H          -2.90094135     -1.64689700     -5.84438684
C          -3.29057614      0.81945275     -3.48027280
H          -3.35788361      1.64622310     -4.20036182
H          -3.98798685      1.03076047     -2.64891765
H          -2.26602566      0.85756281     -3.01234520
N          -3.56583232     -0.52305659     -4.10852780
O          -1.75614429     -2.17781147     -1.35948701
H          -2.32498768     -3.26338557     -1.33055464
Cl         -3.37944717     -4.35729510     -1.63261891
C          -7.03142498      0.04899575     -9.05525978
H          -8.11261065     -0.14556936     -8.98690260
H          -6.91422390      1.00122957     -9.59181939
H          -6.59640155     -0.73728882     -9.68916486
C          -6.35888775      0.08417526     -7.69856719
H          -5.29237135      0.41454417     -7.75312356
C          -7.15739853      0.97491913     -6.72655970
O          -6.26202823     -1.20573036     -7.09305118
H          -7.11624145     -1.69727163     -7.16746869
O          -6.32741969      1.89592612     -6.17648224
H          -6.81617839      2.55604498     -5.51376404
O          -8.32143592      0.89349316     -6.41317864
C          -7.69142112      1.50878065     -3.24378364
H          -6.61971507      1.27811558     -3.25211688
H          -8.10170095      1.05487231     -2.32464460
H          -8.16522579      0.99964449     -4.10065296
C          -7.95845647      2.99925990     -3.27901372
H          -9.03164722      3.24663565     -3.46594200
C          -7.41930734      3.64926816     -2.00154595
O          -7.26855071      3.61252792     -4.39277731
H          -6.42677193      4.05735274     -4.08120205
O          -8.16533966      3.32849325     -0.91944637
H          -7.69713409      3.54399498     -0.05105105
O          -6.43708936      4.35840862     -1.95130176
          92
 Energy =     -0.96039269 a.u.  #Cluster:   28
C           4.01111175      3.01719438      1.24230492
C           3.03942093      2.47659526      0.39600484
C           3.08601058      1.11542641      0.08437027
C           4.10952272      0.29878687      0.61898173
C           5.08715621      0.84925501      1.45423650
C           5.02547309      2.21044317      1.76854522
H           3.97193930      4.07871416      1.49290651
H           2.24390426      3.10984243     -0.02517490
H           5.86482062      0.20626184      1.86462379
H           5.77414976      2.64119222      2.43328077
O           4.14338891     -1.08056544      0.45354239
O           2.25225141      0.55138448     -0.86576445
C           4.20134168     -1.54869427     -0.92089443
H           5.12247002     -1.20408635     -1.39112119
H           4.20673276     -2.63878520     -0.78606136
H           3.30468923     -1.22537568     -1.46897952
C           0.84145936      0.32029346     -0.54991951
H           0.60621941     -0.39935959     -1.37435865
C           0.03452216      1.63555769     -0.71767140
H           0.53328569      2.46796198     -0.16060226
O          -0.00681228      1.97955435     -2.08659614
H           0.51195982      2.99025677     -2.24329639
C           0.67284896     -0.32593318      0.83189883
H          -0.39709765     -0.54018835      1.04474342
H           1.09182587      0.30200664      1.63825995
O           1.27015388     -1.62070126      0.86879257
H           2.25923623     -1.54037207      0.81252117
C          -1.39987876      1.44038746     -0.26007697
C          -2.27791696      0.68829822     -1.05065090
C          -1.84046692      2.01323312      0.94130460
C          -3.59523059      0.49993731     -0.62345052
H          -1.94889674      0.26923437     -2.00416918
C          -3.16199937      1.84573857      1.36078616
H          -1.15974550      2.60906810      1.54841635
C          -4.04405238      1.09028406      0.57913382
H          -3.52379462      2.29358968      2.28467462
O          -5.31802470      0.89291661      1.09801830
O          -4.43936855     -0.21013263     -1.47207252
C          -6.39019497      1.36634865      0.23659548
H          -6.30288322      0.93260083     -0.76684390
H          -7.28321694      1.00715772      0.75736770
H          -6.36000179      2.45868876      0.19722555
C          -4.90229080     -1.46757142     -0.90640859
H          -5.59412915     -1.82674083     -1.67490290
H          -4.05208577     -2.14509170     -0.78578048
H          -5.41084101     -1.29498538      0.04830386
C           2.04537448      1.56710614     -4.46766140
H           1.66605270      2.60702059     -4.53511744
H           2.40519316      1.21858774     -5.45051780
C           3.10320267      1.42413130     -3.34775691
H           2.63273685      1.83234259     -2.40136165
H           3.25500865      0.34147027     -3.14312271
C           5.41053798      1.66620290     -2.52189768
H           6.39052176      2.15606112     -2.63697591
H           5.03145800      1.91839562     -1.50889664
H           5.56782700      0.57512807     -2.54654390
C           4.27864770      3.61551742     -3.49637628
H           5.16549224      4.15225561     -3.86579560
H           3.40630101      3.97122523     -4.09930651
H           4.05574418      3.94531631     -2.46057443
C           4.98766099      1.75195293     -4.94515097
H           6.00482247      2.16600213     -5.08489349
H           5.03191660      0.65914083     -5.08189696
H           4.35288522      2.16494294     -5.75252095
N           4.43022125      2.11849963     -3.58668756
O           1.00309866      0.67490447     -4.13282798
H           0.49854402      1.03113871     -3.29039294
Cl          1.50516923      4.27652692     -2.28736165
C           0.92226587      6.40068745     -4.71111410
H           0.43240400      6.88808592     -5.55812351
H           0.83027908      5.30863506     -4.82876210
H           0.34368690      6.62585784     -3.79606147
C           2.36518401      6.82090657     -4.51738998
H           2.82192604      6.35256951     -3.60503348
C           3.17823267      6.49021182     -5.78154506
O           2.51828365      8.21125311     -4.27585970
H           2.05870993      8.74769401     -4.96378937
O           3.83970840      5.29037902     -5.62959492
H           4.36410799      5.02749728     -6.45544075
O           3.30887131      7.10718688     -6.81116135
C           7.62757512      4.13412910     -8.65435076
H           8.03318004      5.13958177     -8.85052781
H           8.48825967      3.47177931     -8.48662525
H           7.13806785      3.79732057     -9.58219599
C           6.65404947      4.10911252     -7.49454257
H           6.33773068      3.07287842     -7.21614211
C           7.26883043      4.84039569     -6.28759083
O           5.41359640      4.73416756     -7.81451499
H           5.53891165      5.62403591     -8.24244484
O           7.18897486      4.02351453     -5.17277290
H           7.60746163      4.44289526     -4.36923630
O           7.77252614      5.92658699     -6.20550965
          92
 Energy =     -0.95973882 a.u.  #Cluster:   29
C           4.24225356      2.89695604     -0.56633620
C           3.15858294      2.03624172     -0.77625499
C           3.12417033      0.80438464     -0.12137203
C           4.17552422      0.44288445      0.75857604
C           5.25783685      1.30340106      0.95794781
C           5.28190191      2.53497751      0.29249541
H           4.26225504      3.86427248     -1.07230715
H           2.31060583      2.33910315     -1.39914940
H           6.05580697      1.01365643      1.64108280
H           6.12091970      3.21214711      0.45071328
O           4.12375377     -0.69113831      1.55158123
O           2.15471460     -0.15025633     -0.35894072
C           3.96541891     -1.95341215      0.84074032
H           4.77529158     -2.08141608      0.12310029
H           4.04834251     -2.68583481      1.66291186
H           2.97897048     -1.99184735      0.36134810
C           0.77080090      0.10387072      0.05283780
H           0.39763130     -0.95439654      0.01908858
C           0.07507561      0.97779682     -1.02371332
H           0.61059735      1.95704300     -1.13559320
O           0.23275227      0.36203123     -2.28240640
H          -0.16887688     -0.69108131     -2.29047123
C           0.70274954      0.69095688      1.46437133
H          -0.34971308      0.81563209      1.79692298
H           1.22705443      1.66394270      1.53553840
O           1.24298707     -0.21535688      2.42735313
H           2.18709634     -0.42594842      2.20946877
C          -1.38685756      1.19680592     -0.68169701
C          -2.31880624      0.16821877     -0.88283834
C          -1.81296949      2.42428421     -0.16966931
C          -3.66476109      0.37048313     -0.59037290
H          -1.97768514     -0.79194459     -1.28055789
C          -3.15846702      2.63809535      0.14869613
H          -1.09191967      3.22993680     -0.00756311
C          -4.09604673      1.62066145     -0.06142740
H          -3.49914645      3.58619772      0.56012572
O          -5.37580642      1.98689843      0.29078927
O          -4.65277886     -0.57753341     -0.77582735
C          -6.42783385      1.00192115      0.13028006
H          -6.21194113      0.11698247      0.73924485
H          -7.30522857      1.54440025      0.49784362
H          -6.52741180      0.73254111     -0.92701051
C          -4.24776704     -1.85323782     -1.34131060
H          -5.20548313     -2.38179748     -1.40151500
H          -3.80653591     -1.70990351     -2.33320925
H          -3.54916334     -2.36266093     -0.66875086
C           0.96172032     -2.44797208     -5.31001295
H           1.44402815     -2.73044388     -6.26348141
H           1.26909893     -3.13720572     -4.49597385
C           1.21878104     -0.97054232     -4.94349520
H           1.14451564     -0.33482718     -5.84937441
H           0.37932797     -0.62155816     -4.26769232
C           2.63575558      0.75596497     -3.91853468
H           3.53562591      0.99676720     -3.33153541
H           2.61799338      1.37792620     -4.82198050
H           1.74854268      1.04687570     -3.27713959
C           3.69515251     -1.12058598     -5.12745035
H           4.66602299     -0.85167744     -4.67680118
H           3.70611430     -2.21142644     -5.30162671
H           3.63495047     -0.62591787     -6.11120233
C           2.62169015     -1.49128856     -2.93701565
H           3.62376054     -1.46938242     -2.49358084
H           1.91649232     -1.03837530     -2.17328889
H           2.27874123     -2.53807279     -3.04676310
N           2.54233442     -0.72139657     -4.23161605
O          -0.42284888     -2.58818289     -5.57685115
H          -0.93595516     -2.64742819     -4.71313642
Cl         -0.39714627     -2.34531284     -2.47262878
C           2.95561406      6.21397741     -0.17306914
H           3.39844075      5.39759512     -0.76502011
H           2.31735858      6.80863523     -0.83920561
H           3.78554785      6.86188779      0.14577167
C           2.19353527      5.70257870      1.03978389
H           1.75958063      6.52971895      1.65598019
C           1.10226828      4.72472695      0.58216935
O           3.03747171      5.02478072      1.95501521
H           3.44204588      4.21691224      1.54277404
O          -0.10351849      5.34267167      0.44805063
H          -0.83694720      4.68689478      0.16802539
O           1.21655633      3.54369988      0.33775340
C           5.17611712     -1.65398816      4.40674676
H           4.51747584     -2.08113098      5.17330492
H           5.78500226     -0.87498574      4.88336967
H           4.52335106     -1.14227267      3.67342664
C           6.02751477     -2.69731459      3.70897416
H           6.62465670     -2.27124949      2.86387407
C           6.94174892     -3.39563255      4.72728594
O           5.24202772     -3.69933427      3.07365767
H           4.69531156     -4.19595507      3.73240045
O           8.17200312     -2.78703205      4.74140722
H           8.80320742     -3.19963627      5.39033821
O           6.71128878     -4.33659079      5.44534992
          92
 Energy =     -0.95859543 a.u.  #Cluster:   30
C           3.45442922      2.25458977     -1.13183204
C           2.42506846      1.31851691     -1.28071890
C           2.58830597      0.03764256     -0.75121608
C           3.77876760     -0.29385217     -0.05709525
C           4.81144122      0.63554500      0.06940020
C           4.63789382      1.91617480     -0.46989627
H           3.32805811      3.25897984     -1.53769600
H           1.49133457      1.58194875     -1.79094525
H           5.72148087      0.36246622      0.60280944
H           5.43400945      2.65331210     -0.36427534
O           3.88540342     -1.48699408      0.64667768
O           1.70849053     -1.00593072     -0.96361569
C           3.87047876     -2.70067766     -0.15630034
H           4.88191894     -2.87678947     -0.52447025
H           3.55266821     -3.46373177      0.57926926
H           3.13352808     -2.64050588     -0.97037838
C           0.33661739     -0.94354839     -0.45559826
H           0.05505328     -2.01431217     -0.63109746
C          -0.52603526     -0.00732066     -1.35243924
H           0.00297551      0.97338762     -1.49162229
O          -0.57048582     -0.54679981     -2.64076779
H          -1.30376872     -1.44255275     -2.77855911
C           0.32386623     -0.60028533      1.03407011
H          -0.67465529     -0.78883730      1.48640642
H           0.62706935      0.44346101      1.23121998
O           1.19483206     -1.46824412      1.77298528
H           2.13072138     -1.41802583      1.41416417
C          -1.89213165      0.21420379     -0.73598729
C          -2.83396763     -0.82311568     -0.70896707
C          -2.21849845      1.46688843     -0.20899069
C          -4.11673466     -0.59542623     -0.21623938
H          -2.56355803     -1.80922726     -1.09496631
C          -3.48368631      1.69279294      0.34255258
H          -1.49737031      2.28109782     -0.22571064
C          -4.44426921      0.67381011      0.33849280
H          -3.74582623      2.65902145      0.77003372
O          -5.63366394      1.05424460      0.91859378
O          -5.12691499     -1.53839020     -0.22262634
C          -6.72692244      0.10173257      0.90152893
H          -6.44140656     -0.80629279      1.44535273
H          -7.51747372      0.65382375      1.41992725
H          -7.00119450     -0.13331385     -0.13198780
C          -4.88703644     -2.75183307     -0.98787035
H          -5.88880607     -3.19075287     -1.03207299
H          -4.50647649     -2.52293313     -1.99268030
H          -4.18661744     -3.39238542     -0.44332940
C           4.11107351     -3.08013851     -4.24431515
H           4.53467104     -2.10847695     -3.93522269
H           3.98689753     -3.73906454     -3.36002465
C           2.81312326     -2.93156317     -5.05598482
H           3.02536647     -2.37956829     -6.00694332
H           2.47758427     -3.94345848     -5.38508421
C           0.45417586     -2.24270309     -5.20692125
H          -0.31042256     -1.52180678     -4.81939153
H           0.69791412     -1.96349024     -6.24368846
H          -0.06028500     -3.22226689     -5.19782662
C           2.03796146     -0.80528762     -4.00962967
H           1.17520502     -0.33456200     -3.44046017
H           2.91514651     -0.72290298     -3.35207929
H           2.20397020     -0.21528475     -4.91984891
C           1.37165930     -2.95930748     -3.02639684
H           0.48796040     -2.46728857     -2.52808444
H           1.08703898     -4.00984810     -3.18903361
H           2.19729213     -2.88849602     -2.29245292
N           1.68001087     -2.23941908     -4.31653710
O           5.04329202     -3.80139266     -5.04678465
H           5.41101379     -3.23443280     -5.75773990
Cl         -1.91646691     -2.86818784     -3.25951607
C           2.98201001     -2.92525364      3.56125488
H           2.23791726     -2.11750529      3.67726635
H           3.46296625     -3.07836836      4.53437704
H           3.74585780     -2.54340436      2.86629804
C           2.35236266     -4.19990821      3.02401861
H           3.09225613     -5.02729377      2.88942313
C           1.22865929     -4.65164216      3.97147248
O           1.80337206     -4.02878331      1.73116828
H           1.19723491     -3.20508432      1.69901984
O           1.76342881     -5.51750371      4.90488076
H           1.09301238     -5.84711567      5.55714880
O           0.05814772     -4.37686440      4.00781425
C          -0.14402479     -4.37756037     -8.77036031
H          -0.15941842     -4.22694222     -7.68250782
H          -0.88647231     -3.69299814     -9.20571493
H          -0.51021702     -5.40081983     -8.95546261
C           1.23099701     -4.19065838     -9.38258190
H           1.23268884     -4.29551512    -10.49903757
C           1.79397836     -2.81601594     -8.97204776
O           2.16095976     -5.17910191     -8.97324599
H           2.19977114     -5.25711253     -7.99094635
O           1.87963364     -1.99615583    -10.05406298
H           2.24546733     -1.09167211     -9.84309775
O           2.13663936     -2.42832050     -7.87409533
          92
 Energy =     -0.95802193 a.u.  #Cluster:   31
C           2.62835976      2.41669599      0.80680114
C           1.42212192      1.83907350      0.40110597
C           0.90094105      0.77309122      1.13916448
C           1.58697749      0.28583687      2.27148452
C           2.79388210      0.86625191      2.67241921
C           3.30467899      1.93865322      1.93528760
H           3.05091026      3.23997078      0.22836783
H           0.91040547      2.17958965     -0.50194252
H           3.31072796      0.47939028      3.55039976
H           4.24603171      2.39952362      2.23893659
O           1.06634182     -0.72753562      3.07591095
O          -0.21059174      0.06595120      0.68932371
C           0.92130088     -2.01147074      2.39326718
H           1.86498835     -2.28861458      1.91081068
H           0.67596222     -2.68544564      3.22060348
H           0.11149532     -1.94248302      1.65702435
C          -1.53564511      0.57077696      1.00263918
H          -2.11544567     -0.38331113      0.91822908
C          -1.94996631      1.57450489     -0.11118533
H          -1.40218170      2.53908343     -0.01339218
O          -1.63013204      1.01050025     -1.38518416
H          -0.67795232      0.71340337     -1.41332275
C          -1.64401993      1.17082236      2.40645350
H          -2.64506169      1.61260351      2.58308831
H          -0.86715114      1.93260622      2.60290439
O          -1.55866395      0.13671400      3.39521234
H          -0.61890878     -0.24603692      3.40113736
C          -3.44840381      1.76604678     -0.10535914
C          -4.24785496      0.97762532     -0.94054360
C          -4.04172682      2.73482870      0.71755351
C          -5.63893515      1.12022627     -0.92372011
H          -3.78167608      0.27481199     -1.64172377
C          -5.42731998      2.84865221      0.78035928
H          -3.42489828      3.41348985      1.30580637
C          -6.24721170      2.01415196     -0.01050692
H          -5.90240711      3.59949663      1.40948556
O          -7.57644547      2.22655357      0.22387429
O          -6.36181651      0.48302236     -1.92058041
C          -8.53738928      1.29579493     -0.34380773
H          -8.49152948      1.33355716     -1.44059608
H          -8.34864312      0.27725340      0.03395018
H          -9.48478564      1.69189108      0.03667814
C          -6.57049590     -0.95192262     -1.75700838
H          -7.00677691     -1.22246374     -2.73170568
H          -5.61994622     -1.45716899     -1.58479569
H          -7.26775332     -1.13308092     -0.92687022
C          -3.89326629     -0.01156723      5.39549514
H          -4.24565886     -0.36279272      6.38309985
H          -3.57117760     -0.87042062      4.77640467
C          -4.95412204      0.86137076      4.68934265
H          -5.54150992      1.41574878      5.45312656
H          -4.43012561      1.64551567      4.09260501
C          -7.02216197      0.98750755      3.35140166
H          -7.72928778      0.43926654      2.67186954
H          -7.60751715      1.35291420      4.20501582
H          -6.66005644      1.84578087      2.76046930
C          -6.47993201     -1.10038654      4.52750387
H          -7.26208788     -1.60926639      3.89787200
H          -5.72814111     -1.87692697      4.73342820
H          -6.95652784     -0.79310740      5.46755003
C          -5.15094199     -0.40834695      2.56400951
H          -5.87406720     -1.04921034      1.91165723
H          -4.82096521      0.41467693      1.91700251
H          -4.29334207     -1.04303456      2.81416798
N          -5.89253722      0.07551342      3.77938111
O          -2.78204132      0.82637976      5.68755861
H          -2.09961484      0.73470054      4.95073357
Cl         -7.66814927     -1.72361262      1.50011902
C           1.34442705     -2.01227328     -2.73702936
H           2.06193767     -1.84814266     -3.55262354
H           1.50983316     -3.03209252     -2.35924465
H           0.33568123     -1.99478611     -3.18020909
C           1.46027858     -0.98295527     -1.63178758
H           0.74873224     -1.16971377     -0.78006435
C           2.90439325     -0.90350308     -1.11421278
O           1.10923775      0.33248628     -2.05540297
H           1.44205407      0.52446129     -2.96388893
O           3.02291652     -1.66916865      0.02502572
H           3.93504342     -1.63240515      0.42165591
O           3.85226718     -0.29732483     -1.54174403
C         -10.66660720      1.10380010     -5.69286941
H         -10.81269927      0.01564233     -5.67672633
H         -11.15711786      1.51663067     -4.80174464
H         -11.20270741      1.48653025     -6.57275983
C          -9.19821894      1.49269139     -5.75937093
H          -9.04166587      2.59985644     -5.73436393
C          -8.42838989      0.79937335     -4.62263087
O          -8.60344510      1.11423399     -6.99395802
H          -8.60609448      0.13247262     -7.10168995
O          -8.22923292      1.66637391     -3.59732501
H          -7.65552413      1.27226372     -2.83296256
O          -8.04492907     -0.34746870     -4.58488509
          92
 Energy =     -0.95644173 a.u.  #Cluster:   32
C           3.19409376      2.52531342     -0.12144099
C           1.94470017      2.01220895     -0.48305546
C           1.70142388      0.64405833     -0.33646278
C           2.72309974     -0.21760205      0.12343489
C           3.97188084      0.30277254      0.48083407
C           4.19408420      1.67854074      0.36878287
H           3.39102777      3.59276866     -0.22697277
H           1.15462519      2.65418257     -0.87998134
H           4.74850144     -0.37100906      0.84312851
H           5.16218502      2.09182748      0.65562683
O           2.52838128     -1.57465388      0.34323609
O           0.49784425      0.08529552     -0.74285883
C           2.06473542     -2.32985258     -0.81619478
H           2.77841500     -2.22718349     -1.63446306
H           2.04463664     -3.35389371     -0.42181187
H           1.05775051     -1.99315799     -1.10344150
C          -0.64366497      0.18835260      0.14941605
H          -1.29484072     -0.59358514     -0.33108261
C          -1.25501627      1.60607726      0.08830679
H          -0.62884754      2.33100516      0.67219360
O          -1.17062926      2.02543364     -1.29978477
H          -1.63404104      2.88420026     -1.39907351
C          -0.32817250     -0.14584192      1.61732351
H          -1.24383321     -0.05503012      2.24112143
H           0.46207144      0.51616083      2.02401546
O           0.04905873     -1.50628540      1.79265208
H           0.93338032     -1.67355531      1.35869619
C          -2.69750134      1.63147326      0.53172734
C          -3.59545240      0.64916922      0.08102051
C          -3.14212730      2.65680010      1.36886966
C          -4.93909502      0.71172746      0.43717679
H          -3.22437609     -0.17445299     -0.53927138
C          -4.48804818      2.72642707      1.74225086
H          -2.44850047      3.41141653      1.73938987
C          -5.39803337      1.76962801      1.27707278
H          -4.84936089      3.52118573      2.39451763
O          -6.67792619      1.99132180      1.72388638
O          -5.90182251     -0.18512333      0.02196377
C          -7.73294455      1.11734475      1.24779123
H          -7.55362274      0.09341345      1.59517968
H          -8.61835204      1.55774425      1.72054464
H          -7.79307981      1.15572540      0.15557686
C          -5.46123899     -1.30580119     -0.79148495
H          -5.13651357     -0.94544813     -1.77742054
H          -4.65754023     -1.86711949     -0.29712228
H          -6.37588285     -1.90373288     -0.86377262
C          -4.09190995      0.33162104     -3.84770011
H          -4.26828419     -0.31254364     -4.73017544
H          -4.85089875      0.08272604     -3.06937302
C          -2.71024290      0.21099046     -3.26646299
H          -2.51426594      0.95177862     -2.46481468
H          -2.66738639     -0.89740930     -2.62400618
C          -0.27830911     -0.00019968     -3.45642333
H           0.60622366      0.00988267     -4.10186003
H          -0.16484645      0.79407645     -2.67614602
H          -0.28946529     -0.94803376     -2.87284575
C          -1.48878225      1.45271068     -5.03607855
H          -0.75792267      1.38865369     -5.85312326
H          -2.48496700      1.70243949     -5.46552645
H          -1.21012315      2.30115534     -4.38835353
C          -1.71861422     -1.00476952     -5.17588252
H          -0.84345478     -1.12469760     -5.82926554
H          -1.84040742     -1.94701034     -4.59013278
H          -2.61676409     -0.90014140     -5.80652358
N          -1.56502841      0.17117950     -4.23359218
O          -4.36041052      1.64924958     -4.36762481
H          -4.39899475      2.30117158     -3.64166313
Cl         -2.45666893     -2.35729527     -1.95568551
C           1.51359014      1.75709178      4.33672663
H           2.57938715      1.77984374      4.07348916
H           1.44244559      1.81905435      5.43167743
H           1.13678773      0.76108674      4.04821275
C           0.71432470      2.85165578      3.65502579
H          -0.37598769      2.82111423      3.90943322
C           1.32190575      4.22432549      3.98801838
O           0.72340294      2.71429204      2.23946189
H           1.64915827      2.76173779      1.87877304
O           0.63278740      4.80166177      5.02147558
H           0.98918105      5.69377707      5.28246220
O           2.25589568      4.78793192      3.47228407
C          -2.52890705     -3.17585580      1.42484498
H          -3.22133124     -2.42786116      1.82342182
H          -1.55942800     -2.66461820      1.25612345
H          -2.88492659     -3.46536522      0.42089698
C          -2.37525814     -4.38666546      2.31604457
H          -1.70589874     -5.17022695      1.88081187
C          -1.86615378     -3.94730332      3.70105871
O          -3.59984641     -5.08583642      2.51410827
H          -4.31593785     -4.47007122      2.79482071
O          -0.57426653     -4.37912933      3.87390572
H          -0.18269265     -4.09933304      4.74096388
O          -2.42781213     -3.33790022      4.57934817
          92
 Energy =     -0.95472880 a.u.  #Cluster:   33
C           2.75867272      2.84146653      1.81232361
C           1.78789589      2.00120511      1.25366870
C           1.81676970      0.63828786      1.56096148
C           2.79192577      0.13228618      2.45125069
C           3.78139012      0.96534356      2.97407201
C           3.75242641      2.33102163      2.65019604
H           2.71820393      3.91005988      1.59953950
H           1.00211692      2.40249217      0.60915230
H           4.53862601      0.55462858      3.63676687
H           4.50881541      2.99414608      3.06480175
O           2.72492263     -1.17037882      2.94228242
O           0.98204528     -0.28587605      0.94852149
C           2.91946535     -2.20879152      1.93941706
H           3.93080073     -2.13358177      1.53287465
H           2.78766247     -3.12354434      2.52673426
H           2.16196251     -2.11311277      1.14953494
C          -0.41270652     -0.33421262      1.33590902
H          -0.65169515     -1.37776034      1.01282387
C          -1.23559626      0.69138006      0.51632147
H          -0.80384393      1.72166620      0.60829597
O          -1.07684826      0.24167612     -0.84191838
H          -1.53345263      0.85774027     -1.45091471
C          -0.61290134     -0.11673292      2.83981739
H          -1.68907534     -0.13068397      3.10406785
H          -0.15865304      0.84352274      3.16951468
O          -0.07349667     -1.18282323      3.62237281
H           0.91127385     -1.27930936      3.44161302
C          -2.70170540      0.64622755      0.88547386
C          -3.48404346     -0.44364233      0.47668970
C          -3.27472416      1.68266750      1.64436734
C          -4.84017790     -0.48722033      0.82244790
H          -3.04956513     -1.24730697     -0.11974675
C          -4.62731516      1.64392217      1.98837242
H          -2.66141213      2.53525564      1.95514100
C          -5.41711271      0.56232448      1.57231037
H          -5.08250800      2.44277870      2.56851559
O          -6.73356807      0.54796164      2.01277049
O          -5.58072155     -1.54740331      0.31211016
C          -7.71803584      0.56290189      0.94156589
H          -7.53122237     -0.25230634      0.23330713
H          -8.65638117      0.41929301      1.48688057
H          -7.68802530      1.53706282      0.44499905
C          -6.14842540     -2.41351839      1.33199670
H          -6.77959896     -3.08408343      0.73862261
H          -5.34323213     -2.95887231      1.83125783
H          -6.74015758     -1.83159832      2.04757221
C           1.41118985      1.74900292      5.35388906
H           0.98218466      0.91519946      4.76447400
H           2.36267453      2.06994126      4.87666981
C           0.48243543      2.94139826      5.45805014
H           0.99827834      3.80406189      5.90918864
H           0.23891966      3.27528859      4.27787344
C          -1.67001325      3.99368488      5.97771170
H          -2.67710469      3.88076925      6.40262880
H          -1.17781539      4.85460402      6.45499536
H          -1.78347379      4.24845158      4.89534058
C          -0.67428054      2.43839878      7.60729517
H          -1.63590784      2.35813302      8.13254365
H          -0.13477904      1.47368115      7.74823202
H          -0.06115832      3.21241084      8.09485426
C          -1.61215162      1.58924823      5.49161292
H          -2.57395591      1.38922831      5.99533224
H          -1.81112309      1.80934279      4.42169515
H          -1.03501395      0.63922720      5.54756498
N          -0.85100962      2.72538517      6.13152924
O           1.81747697      1.26030851      6.64597374
H           1.28868876      0.45354226      6.86835067
Cl         -0.44780003      3.48798567      2.74040977
C           2.50830845      1.23518607      9.60560114
H           3.26753035      1.14206637     10.39285455
H           3.03484901      1.37327077      8.64103518
H           1.96212680      2.17132915      9.78620675
C           1.55151179      0.06229846      9.53310592
H           1.08443530     -0.04194508      8.50949144
C           2.26731614     -1.23674145      9.94003720
O           0.42110270      0.21258767     10.38357631
H           0.69254685      0.45649882     11.30116826
O           2.09253724     -2.18868910      8.94680915
H           2.58439906     -3.03654006      9.12818893
O           2.89967603     -1.51371019     10.92438264
C          -2.58111256     -2.05793545      5.40341546
H          -1.89139204     -1.43511734      4.79854195
H          -2.35126832     -3.10290791      5.15164190
H          -3.60216002     -1.84063572      5.05491801
C          -2.46222238     -1.78947628      6.88815050
H          -2.93626840     -2.58749795      7.50705654
C          -0.98747237     -1.60659993      7.29631300
O          -3.11289867     -0.53445872      7.13917610
H          -3.39284175     -0.47420783      8.07786332
O          -0.58985959     -2.63081369      8.08867684
H           0.37688800     -2.53890608      8.40422641
O          -0.23099357     -0.69333098      7.03963177
          92
 Energy =     -0.95091151 a.u.  #Cluster:   34
C           3.68628648      2.83570979      0.75274675
C           2.65617886      1.95667370      0.38400600
C           2.88754159      0.97997504     -0.58347155
C           4.17630511      0.88748008     -1.19033932
C           5.18760753      1.77545911     -0.82311546
C           4.93926997      2.75000428      0.15486225
H           3.49443917      3.58760940      1.51732270
H           1.68229845      2.04488197      0.86219800
H           6.16487586      1.70224903     -1.30090791
H           5.73435122      3.43477110      0.44082102
O           4.58363315     -0.02981458     -2.14637060
O           1.96579435      0.08097176     -1.05982522
C           3.61694810     -1.03251039     -2.57095823
H           2.74183287     -0.53770320     -3.01369371
H           4.17564550     -1.60285504     -3.31535312
H           3.31743890     -1.64174870     -1.70391455
C           0.70250073     -0.17148035     -0.38939098
H           0.36949158     -1.05084154     -1.01080407
C          -0.26582197      1.01176983     -0.63287494
H           0.20982862      1.99076069     -0.39256435
O          -0.47518572      0.96390920     -2.05816486
H          -1.12019228      1.65049785     -2.32743534
C           0.88563413     -0.60327536      1.07360222
H           0.09773982     -0.21183052      1.74466022
H           1.87873308     -0.32079586      1.47317333
O           0.70671663     -2.01865851      1.13890856
H           1.57602093     -2.48160079      1.00239320
C          -1.58041523      0.83231349      0.09243265
C          -2.57211526      0.02213014     -0.47122244
C          -1.79227904      1.45110002      1.33407740
C          -3.76919185     -0.18871705      0.21883351
H          -2.41562526     -0.45400192     -1.44286151
C          -2.97714278      1.23578314      2.03505548
H          -1.02913128      2.09979786      1.76645584
C          -3.96445461      0.40265227      1.48614365
H          -3.14641259      1.67574522      3.02106196
O          -5.01255786      0.11971588      2.34354460
O          -4.77689865     -0.92246833     -0.40022337
C          -6.35460976      0.14855922      1.78312430
H          -6.40648639     -0.39284570      0.83085735
H          -6.94024166     -0.34928719      2.56490181
H          -6.64860153      1.19479237      1.66150414
C          -4.71434710     -2.35012679     -0.12214904
H          -5.59426787     -2.72547516     -0.65518059
H          -3.79260834     -2.76718900     -0.53559229
H          -4.78941555     -2.53476408      0.95929351
C           6.00818744     -3.32567586     -0.87332605
H           5.14183019     -3.29596029     -1.56204280
H           6.79259172     -3.98740708     -1.28729193
C           6.51685880     -1.89530686     -0.56805643
H           5.68000333     -1.15733285     -0.71671568
H           6.75264176     -1.84572593      0.52655215
C           8.15157586     -0.08091998     -0.89707058
H           9.03262682      0.29568661     -1.43841147
H           7.32777730      0.66548931     -1.02965043
H           8.39057803     -0.09347966      0.18265812
C           7.34497720     -1.35212505     -2.84354332
H           8.16309978     -0.95147467     -3.46042957
H           7.05675595     -2.33596951     -3.25353546
H           6.46101529     -0.68128894     -2.97397902
C           8.86982386     -2.41662600     -1.20682158
H           9.75732473     -2.11866260     -1.78448043
H           9.16083999     -2.49973001     -0.14088018
H           8.57913274     -3.44137691     -1.52107982
N           7.72107233     -1.44880914     -1.38242998
O           5.63628673     -3.87297554      0.36249005
H           4.81670278     -3.10128536      0.90383066
Cl          3.99372299     -1.85044635      1.15927915
C          -2.00699261     -2.44688997      2.24718927
H          -2.00048321     -1.37835017      1.99555851
H          -0.95194916     -2.72473622      2.43064213
H          -2.31271020     -2.98790378      1.34290263
C          -2.91579282     -2.77452356      3.41449582
H          -2.89836707     -3.86154593      3.68442944
C          -2.51298908     -1.91073436      4.62128199
O          -4.28679017     -2.54327197      3.13050618
H          -4.47626579     -1.57452524      2.94694143
O          -1.87315360     -2.69734012      5.54799476
H          -1.56863471     -2.19156957      6.34692966
O          -2.66958245     -0.73239649      4.82776892
C           2.33304568     -6.85206394      2.84868392
H           3.09938168     -6.88830325      3.63352465
H           2.05238828     -5.79862191      2.70967179
H           1.45570013     -7.39040429      3.22909382
C           2.81637922     -7.47220608      1.54484127
H           2.04572520     -7.43445307      0.74082966
C           4.12262270     -6.78261225      1.11288466
O           3.06915317     -8.86742229      1.69861831
H           3.93309509     -9.00883218      2.16054365
O           3.88859687     -5.68801074      0.38899348
H           4.77507686     -5.04671055      0.25812824
O           5.23609290     -7.18060972      1.39884926
          92
 Energy =     -0.95020722 a.u.  #Cluster:   35
C           4.13550480      2.87451043      0.32072528
C           2.91858051      2.53453698     -0.29467654
C           2.76187201      1.24856118     -0.80215544
C           3.81377827      0.30068285     -0.71264233
C           5.01368633      0.64853545     -0.09483824
C           5.16546854      1.93893810      0.41674161
H           4.27601336      3.88532553      0.72014684
H           2.11169731      3.26477091     -0.38160265
H           5.81431846     -0.09124766     -0.02199626
H           6.11317554      2.22889576      0.89101780
O           3.64702745     -1.01755491     -1.12887462
O           1.64053669      0.86542105     -1.53551496
C           3.43646347     -1.17374110     -2.56580094
H           4.33191259     -0.84413849     -3.10039241
H           3.28676238     -2.25538635     -2.66552936
H           2.54811935     -0.61751632     -2.88782949
C           0.38491362      0.61885015     -0.84352270
H          -0.15878297      0.08830423     -1.67128635
C          -0.29415552      1.95908130     -0.46590117
H           0.28624380      2.46845814      0.34447917
O          -0.14273745      2.86900514     -1.55165685
H          -0.81469067      2.70614545     -2.29954195
C           0.57176582     -0.28743980      0.38189592
H          -0.39946388     -0.49007537      0.88221368
H           1.27815076      0.15322131      1.11065559
O           1.02029819     -1.57868726     -0.01089142
H           1.95362600     -1.51425843     -0.37377957
C          -1.74475151      1.78388980     -0.08136549
C          -2.59367118      0.95666049     -0.81920918
C          -2.25788876      2.50195611      1.01657259
C          -3.95661358      0.89766290     -0.51277240
H          -2.21440973      0.35521680     -1.65248336
C          -3.61220813      2.43954868      1.33668840
H          -1.59614733      3.12619022      1.61528922
C          -4.47853115      1.64892302      0.56514958
H          -4.02494403      3.00445559      2.17283469
O          -5.77937029      1.60906450      1.01857721
O          -4.77843308      0.16930840     -1.36941626
C          -6.82782069      1.74507738      0.02057222
H          -6.66045128      1.07439058     -0.83131673
H          -7.72120803      1.46076209      0.59308226
H          -6.87036057      2.79313195     -0.29912068
C          -5.11993408     -1.15215138     -0.86290327
H          -5.76062510     -1.55088481     -1.65735991
H          -4.21300896     -1.75250088     -0.74223830
H          -5.66218160     -1.05497550      0.08227699
C           2.23781033      3.37928136     -4.19346329
H           2.14327171      3.47013487     -5.29701924
H           3.31644247      3.24047262     -3.96590893
C           1.69007017      4.54692694     -3.36633846
H           1.39411910      4.16652177     -2.35525148
H           2.57009917      5.23656985     -3.23757411
C          -0.73512908      5.17224047     -3.13680148
H          -1.52617079      5.87563451     -3.43878931
H          -1.16264172      4.14661245     -3.28426792
H          -0.57948726      5.27624820     -2.05132208
C           0.24317512      5.05558010     -5.37657260
H          -0.51791968      5.71331721     -5.80812883
H           1.20728605      5.21979500     -5.99103948
H          -0.07828331      4.01088734     -5.50231826
C           0.90244664      6.85253492     -3.83534573
H           0.12296080      7.50981998     -4.24763999
H           1.10028394      7.15205358     -2.79815753
H           1.83094117      7.05887874     -4.44319412
N           0.53132550      5.38244575     -3.93839725
O           1.59985944      2.11838935     -3.89792996
H           1.54027809      1.95552013     -2.90293166
Cl          3.13843361      5.78211253     -5.91062013
C           7.86391321      4.38353986      1.13904374
H           8.30717248      4.38105537      0.13367638
H           8.69457699      4.31592216      1.85507437
H           7.26855122      3.45538330      1.22372647
C           6.98863016      5.59710614      1.40924269
H           6.61497241      5.63557245      2.46423240
C           7.76092742      6.88369183      1.06079631
O           5.78722503      5.56020427      0.65048153
H           5.96950391      5.60226184     -0.32386265
O           8.40327241      7.35550003      2.17928746
H           8.92172013      8.19389807      2.01838821
O           7.85615412      7.45457477      0.00929132
C          -1.50676367      0.00513679     -4.09705568
H          -1.25978028     -0.06752636     -3.02174758
H          -2.35514840     -0.67344000     -4.28721794
H          -0.64370810     -0.38490286     -4.65590568
C          -1.84708385      1.42438419     -4.51580138
H          -1.96800805      1.52009707     -5.62247881
C          -3.09635787      1.93382859     -3.79164430
O          -0.88405686      2.37731931     -4.08769418
H           0.11421443      2.06547672     -4.23101103
O          -4.20361775      1.22619383     -4.15553565
H          -4.99701152      1.41218265     -3.57491799
O          -3.15455140      2.84861422     -2.99503163
          92
 Energy =     -0.94779549 a.u.  #Cluster:   36
C           4.21289249      2.20044526      0.07614757
C           2.99475217      1.62579376     -0.29996595
C           2.92875083      0.24104461     -0.46236189
C           4.07635315     -0.55723648     -0.28322156
C           5.29946539      0.02502358      0.05858133
C           5.35256068      1.40834051      0.25761834
H           4.26991971      3.27745378      0.23865777
H           2.10991611      2.24433231     -0.47159384
H           6.18367971     -0.59817248      0.16761737
H           6.29204796      1.87205568      0.55846868
O           4.00526729     -1.95066933     -0.35397143
O           1.77822607     -0.40668201     -0.92923469
C           3.77778638     -2.44875886     -1.70870979
H           4.59285859     -2.12097384     -2.36066609
H           3.77305072     -3.53154978     -1.56728130
H           2.81793687     -2.06787032     -2.08727937
C           0.64291154     -0.55521519     -0.03313407
H           0.06380227     -1.31358119     -0.61293316
C          -0.08683280      0.80711950      0.07634849
H           0.46612229      1.49315644      0.77322602
O           0.07088067      1.47498652     -1.18199951
H          -0.67785249      1.29899440     -1.79963162
C           1.05610913     -1.08739887      1.33973955
H           0.17771059     -1.26303354      1.99063818
H           1.76609009     -0.39699030      1.84680312
O           1.66282943     -2.37892982      1.22575795
H           2.43772813     -2.32103973      0.58514450
C          -1.53467460      0.65065910      0.46940101
C          -2.43039635     -0.02657518     -0.36911103
C          -1.97944662      1.20143627      1.67964513
C          -3.77838920     -0.11478774     -0.00799589
H          -2.10732406     -0.49126855     -1.30123737
C          -3.32698795      1.12659498      2.03899532
H          -1.27452118      1.70568639      2.34637049
C          -4.23464950      0.48559307      1.18863626
H          -3.68963180      1.56599937      2.96890896
O          -5.54887332      0.39545544      1.62846584
O          -4.62385715     -0.72342045     -0.92487774
C          -6.51563296      1.04303759      0.75475715
H          -6.42458897      0.67044695     -0.27183748
H          -7.46779318      0.75106322      1.20984676
H          -6.36711938      2.12589376      0.79679690
C          -5.33663468     -1.88174755     -0.40738039
H          -6.02027130     -2.11780841     -1.23012005
H          -4.62301314     -2.69224144     -0.23466574
H          -5.87839960     -1.62895609      0.51079461
C           2.17825335     -2.07295274      5.49809400
H           1.09139912     -1.86108810      5.43772608
H           2.33054850     -3.03875603      6.01396707
C           2.79492916     -1.98604537      4.12431467
H           2.13200408     -2.39090675      3.33553412
H           2.85900922     -0.73532008      3.83190803
C           4.64851760     -2.26165831      2.55224604
H           5.65210507     -2.66152967      2.35988142
H           3.94547944     -2.69515066      1.80988482
H           4.66169964     -1.16642479      2.33587137
C           4.23671381     -4.00120165      4.24616831
H           5.24639358     -4.41346027      4.10007548
H           3.92549319     -4.21959677      5.28251781
H           3.54666037     -4.54115044      3.57338209
C           5.13701553     -1.79911567      4.91429675
H           6.15328429     -2.20690652      4.86773057
H           5.17680215     -0.71242837      4.66869442
H           4.76492149     -1.84059743      5.96092338
N           4.18974737     -2.51077333      3.97310166
O           2.76901117     -1.13184718      6.40907202
H           2.76949999     -0.22364871      6.00426210
Cl          3.22940385      0.82332632      3.53655661
C           0.61314380     -1.02999998     -6.19342175
H           1.26935324     -1.90534649     -6.10290651
H          -0.32201388     -1.26029731     -5.66805782
H           0.37508539     -0.91699145     -7.26057067
C           1.26292875      0.23860178     -5.66155358
H           0.58645748      1.12683710     -5.71604417
C           1.75343751      0.00096708     -4.22165387
O           2.37459673      0.63390268     -6.45438028
H           3.10317632     -0.03073578     -6.39722996
O           0.89737463      0.54639178     -3.33465244
H           1.20062834      0.45534030     -2.33224774
O           2.75554756     -0.59576501     -3.88929507
C         -10.58222926      1.07611878      1.39062438
H         -10.43567717      2.16365283      1.34512939
H          -9.82233609      0.66669818      2.07002338
H         -10.37831577      0.68111327      0.38422545
C         -11.98700046      0.69308119      1.82813950
H         -12.12513330     -0.41391157      1.92282296
C         -12.32129001      1.40196349      3.15096685
O         -12.96878827      1.05470114      0.87029787
H         -12.97895895      2.03090231      0.71657442
O         -12.13642343      0.53623640      4.19694494
H         -12.34072128      0.94355273      5.08305576
O         -12.68805135      2.53515235      3.33826580
          92
 Energy =     -0.94770016 a.u.  #Cluster:   37
C           3.43116107      2.88491195      0.37337205
C           2.15832044      2.35242514      0.15351582
C           1.98842693      0.96548756      0.15382028
C           3.09481020      0.11520886      0.37105892
C           4.36803322      0.65449542      0.58697559
C           4.52696747      2.04293867      0.59259226
H           3.56874366      3.96591844      0.37104078
H           1.29348067      3.00287283     -0.02581035
H           5.21036121     -0.01573483      0.75624310
H           5.51504816      2.47032151      0.76416838
O           2.97443191     -1.26424532      0.49536715
O           0.76273437      0.38872621     -0.17962597
C           2.46722942     -1.94346610     -0.68959143
H           3.16164167     -1.79547243     -1.51967798
H           2.44955983     -2.98952615     -0.35972123
H           1.46161771     -1.57754594     -0.93258272
C          -0.27444787      0.32955444      0.83825290
H          -0.89458910     -0.49812787      0.40224406
C          -1.01740188      1.69013255      0.84282224
H          -0.61629890      2.36308046      1.64193538
O          -0.72358493      2.41835228     -0.35832946
H          -0.49697336      1.79090064     -1.09214190
C           0.22627685     -0.06139003      2.23581477
H          -0.61946146     -0.09721754      2.95886969
H           1.00785445      0.62606580      2.60514556
O           0.70864461     -1.39824988      2.24503223
H           1.54778987     -1.46449765      1.70644779
C          -2.52980928      1.60048068      0.95302142
C          -3.22829775      0.39886771      0.78924871
C          -3.22289528      2.79501946      1.19680562
C          -4.62522574      0.39233613      0.86970054
H          -2.69176333     -0.53999898      0.62606840
C          -4.61799205      2.80136622      1.27650015
H          -2.67475648      3.73138945      1.29845543
C          -5.31928391      1.60592544      1.12695648
H          -5.16684220      3.72388883      1.45336515
O          -6.68999295      1.64079001      1.36677775
O          -5.43396513     -0.70200607      0.71975976
C          -7.51543104      1.25906758      0.22965581
H          -7.24177457      0.25461929     -0.11474947
H          -8.52622253      1.27434164      0.66004064
H          -7.40470585      2.00226992     -0.56254170
C          -4.79970453     -1.99538183      0.49805466
H          -4.71065495     -2.13647022     -0.58010841
H          -3.83499046     -2.08446742      1.01940471
H          -5.50994926     -2.69148374      0.96203914
C          -7.57489554      2.00122023      3.94787726
H          -6.62688894      2.39874949      3.54395657
H          -8.20573755      1.63169944      3.10296139
C          -7.38424831      0.94344870      5.04180732
H          -6.91122102      1.40988357      5.93492918
H          -8.38763111      0.58595223      5.36826656
C          -6.57610281     -1.29282877      5.67547674
H          -5.91852448     -2.15563958      5.39301849
H          -6.18092598     -0.90700667      6.62655132
H          -7.58943569     -1.68685809      5.82894141
C          -5.12211177      0.17380897      4.36391159
H          -4.48378457     -0.84499559      4.00134249
H          -4.98340890      0.87108429      3.53830272
H          -4.61434078      0.52815757      5.25629959
C          -7.10297197     -0.83443872      3.31743328
H          -6.56496816     -1.77446478      3.05101165
H          -8.17697443     -1.04146166      3.39473156
H          -6.93074713     -0.16757524      2.43992612
N          -6.53365365     -0.23960958      4.58313762
O          -8.35426697      3.05571149      4.55123977
H          -7.77387246      3.83655742      4.77479755
Cl         -4.10153862     -2.43075064      3.58495831
C         -13.17464963      2.36396300      1.74252599
H         -13.12902626      1.29935554      2.00584586
H         -13.46152000      2.91654528      2.64731492
H         -13.99259458      2.47990602      1.01545133
C         -11.87041045      2.87922199      1.15771221
H         -11.90091474      3.97353059      0.92601599
C         -10.70937492      2.55043196      2.11161820
O         -11.57682893      2.29359228     -0.10275472
H         -11.49854623      1.31159183     -0.02881189
O         -10.41306506      3.60484375      2.89939022
H          -9.61522958      3.42740260      3.54239610
O         -10.10245768      1.49963125      2.18183006
C          -9.01810223      3.91972104      7.50201363
H          -9.80707787      4.67967302      7.57663549
H          -9.17418780      3.38340516      6.54967174
H          -9.19782826      3.19572858      8.31119603
C          -7.61876289      4.49747894      7.61051738
H          -6.81734822      3.73973553      7.41645605
C          -7.48008374      5.69093877      6.64999469
O          -7.31122250      4.95001762      8.91660371
H          -7.97248184      5.61204287      9.23703335
O          -6.90301795      5.25951148      5.46147025
H          -6.76204396      6.00001121      4.80807319
O          -7.78367585      6.84409068      6.78162583
          92
 Energy =     -0.94660817 a.u.  #Cluster:   38
C           3.79749636      1.95215596      1.03171522
C           2.45614495      1.86193811      0.63367249
C           1.84776868      0.60540746      0.59440104
C           2.57042509     -0.55820351      0.94085604
C           3.91493643     -0.45754298      1.31830449
C           4.51427143      0.80960895      1.37269091
H           4.27495377      2.93345593      1.07242938
H           1.86258364      2.74175818      0.36404658
H           4.45956482     -1.36295385      1.57469398
H           5.55733848      0.89592222      1.68841142
O           1.98682578     -1.81451413      1.04920946
O           0.55508175      0.47176019      0.09742493
C           1.37986348     -2.31676401     -0.17818946
H           2.13697904     -2.37335997     -0.96596765
H           1.03060489     -3.31300603      0.12503011
H           0.54546835     -1.66642438     -0.48301822
C          -0.54732017      0.65953117      1.00651828
H          -1.30332730      0.01810611      0.47969786
C          -0.96568072      2.16159192      1.00030070
H          -0.58332943      2.71529313      1.88488622
O          -0.35087086      2.87240855     -0.06322131
H          -0.32152949      2.32525778     -0.89380701
C          -0.34989141      0.14186314      2.43608768
H          -1.17557068      0.47233523      3.09921315
H           0.61468345      0.45396379      2.87229628
O          -0.46451874     -1.28291797      2.45116353
H           0.37113868     -1.66735451      2.05102570
C          -2.48516424      2.15454014      0.93417512
C          -3.13057696      1.96132866     -0.28398990
C          -3.21598636      2.14270455      2.13316298
C          -4.50729921      1.66187536     -0.31094368
H          -2.57278800      2.00629824     -1.22272312
C          -4.58587134      1.86973668      2.11758184
H          -2.72400524      2.32897202      3.08859425
C          -5.22459900      1.58987452      0.89664053
H          -5.16140999      1.82982546      3.04586497
O          -6.50003572      1.07833897      1.05557758
O          -5.10974336      1.48141774     -1.56319996
C          -7.51497072      1.56167187      0.13627551
H          -7.24248596      1.36632459     -0.90710231
H          -8.38968362      0.96894130      0.42745697
H          -7.64691835      2.63797950      0.30419463
C          -5.26104464      0.07313192     -1.92529988
H          -5.91631798      0.12342318     -2.80109584
H          -4.27645190     -0.34368499     -2.17274621
H          -5.72291960     -0.49300006     -1.10154828
C          -2.94133580      1.18241215     -4.29363521
H          -3.46529945      0.29656321     -3.89776796
H          -1.84571394      1.01522876     -4.21990214
C          -3.39215759      1.56262465     -5.72582110
H          -4.49579895      1.62480749     -5.78012288
H          -3.00717650      2.59606954     -5.92742451
C          -3.44745729      1.09584529     -8.15578367
H          -3.12151216      0.42815986     -8.98159857
H          -4.55205467      1.10746474     -8.14866846
H          -3.10256939      2.11905959     -8.41215657
C          -3.35984758     -0.79027039     -6.55574673
H          -3.12575515     -1.47845307     -7.37913673
H          -2.77970947     -1.24398108     -5.62372359
H          -4.42443290     -0.84737288     -6.30718066
C          -1.38809659      0.68671769     -6.84983310
H          -0.94294730      0.12845468     -7.68167078
H          -1.01648789      1.72237086     -6.89068887
H          -0.95282499      0.23164372     -5.91977317
N          -2.89394751      0.61572989     -6.81516676
O          -3.20351719      2.34782868     -3.51501838
H          -4.00322786      2.19849622     -2.93402199
Cl         -1.55257989     -1.55055697     -4.25407992
C          -3.19947255     -1.49995439      0.75997871
H          -3.22214139     -0.45431616      1.09621249
H          -2.25991305     -1.93727119      1.15579687
H          -3.10812574     -1.49180153     -0.33384312
C          -4.42498286     -2.27506892      1.20460924
H          -4.44613956     -3.31749475      0.80231597
C          -4.46259856     -2.27514902      2.74066769
O          -5.64624234     -1.73577396      0.72148746
H          -5.81170135     -0.81407953      1.06858642
O          -4.01650547     -3.49060559      3.20599303
H          -3.96975817     -3.52165104      4.19912889
O          -4.79294834     -1.39801361      3.50720540
C           4.33434632     -0.60775594     -2.60279906
H           4.56900204      0.40913573     -2.94556821
H           3.86015041     -0.52072254     -1.60845272
H           5.30666229     -1.10660788     -2.45460724
C           3.47736869     -1.39054193     -3.59455383
H           3.39415099     -2.46963630     -3.31004969
C           2.07134983     -0.76214847     -3.77370479
O           4.09114154     -1.46200704     -4.88784291
H           4.22170611     -0.56259308     -5.26766676
O           1.17098147     -1.52076664     -3.13048702
H           0.16976354     -1.30831276     -3.41247955
O           1.80160302      0.23085218     -4.41857088
          92
 Energy =     -0.94626427 a.u.  #Cluster:   39
C           3.19874494      3.01108981      0.63622379
C           2.18113748      2.39541620     -0.10117241
C           2.25574420      1.02613031     -0.36855563
C           3.37278374      0.27722575      0.07357935
C           4.38846775      0.90158635      0.80538585
C           4.29076816      2.26427922      1.09103468
H           3.13919348      4.07822832      0.84593222
H           1.34348910      2.97985095     -0.49927102
H           5.24640708      0.31910652      1.14765496
H           5.07883566      2.75140332      1.66799981
O           3.39892146     -1.08398149     -0.19503536
O           1.33339238      0.41267009     -1.20969847
C           4.64077109     -1.55818685     -0.80663418
H           5.43799701     -1.59053816     -0.05171454
H           4.37944690     -2.58317436     -1.11472443
H           4.91117284     -0.94082800     -1.66475171
C           0.00126023      0.13019475     -0.72690696
H          -0.45949411     -0.18131206     -1.69950382
C          -0.73946553      1.33814977     -0.10965838
H          -0.20308843      1.73326338      0.79043338
O          -0.71360642      2.46922079     -0.98091425
H          -0.99499548      2.23010810     -1.88994176
C           0.06049407     -1.05837429      0.24636471
H          -0.93992922     -1.48994209      0.44256690
H           0.55739754     -0.80179334      1.19929075
O           0.78343662     -2.12505259     -0.38261216
H           1.68253968     -1.76195248     -0.67731798
C          -2.17080070      0.96376439      0.21554801
C          -3.08093782      0.69067002     -0.80667141
C          -2.57852068      0.90130319      1.55821957
C          -4.40907997      0.38162796     -0.48030409
H          -2.78960173      0.70948545     -1.85762661
C          -3.89732674      0.58856771      1.88366131
H          -1.86239928      1.10627677      2.35546389
C          -4.82655485      0.32671611      0.86491777
H          -4.22424379      0.54818744      2.92404575
O          -6.07938975     -0.09231256      1.28100101
O          -5.26581265      0.23954132     -1.56856323
C          -7.19586952      0.75130503      0.88716365
H          -7.38337031      0.67019382     -0.19801473
H          -8.02630019      0.30534009      1.45193691
H          -7.01397337      1.79236976      1.16820073
C          -5.87615819     -1.07908071     -1.69009543
H          -6.58002852     -0.93532144     -2.52737121
H          -5.10296006     -1.80825662     -1.94428617
H          -6.39336285     -1.35570854     -0.76539414
C           2.78272449     -3.88791676      1.26230550
H           3.24303304     -4.29211264      2.18410160
H           3.02085898     -2.80367211      1.18894973
C           3.21942124     -4.61093139     -0.02042848
H           2.36875814     -4.62315760     -0.73792870
H           4.05067909     -4.01651367     -0.51161673
C           4.21590237     -6.58030211     -1.11592712
H           4.55002884     -7.62496781     -1.02219511
H           3.45382977     -6.52068281     -1.90574111
H           5.10845094     -5.99447089     -1.45592390
C           2.56330705     -6.89309746      0.69614380
H           2.91519119     -7.86900041      1.06311462
H           2.02687417     -6.38751950      1.52859397
H           1.81541631     -7.06337134     -0.09419503
C           4.83684542     -6.05059474      1.18980193
H           5.32790060     -7.01775373      1.28598274
H           5.70451365     -5.28163799      0.77628384
H           4.55992562     -5.66932019      2.17427602
N           3.71283273     -6.03660110      0.20726589
O           1.37952945     -4.06816882      1.44830850
H           0.89544554     -3.44573620      0.81835433
Cl          6.49001930     -4.11612505     -0.24749955
C          -9.81432807      1.22274117     -2.81965194
H         -10.69366609      0.93590150     -3.40881617
H         -10.09781978      2.07285205     -2.18453051
H          -9.05364076      1.60446538     -3.53005675
C          -9.23460222      0.08440221     -2.00968313
H          -8.38174016      0.41972278     -1.34844642
C         -10.33227728     -0.59307021     -1.17331646
O          -8.63715246     -0.92725208     -2.81188285
H          -9.22015084     -1.18024963     -3.56750515
O         -10.09400410     -0.35834429      0.16187439
H         -10.77058202     -0.78294796      0.75605869
O         -11.28162090     -1.25236021     -1.51755907
C          -4.71780304      3.49117416     -2.11567494
H          -4.39648532      2.53261431     -2.55063860
H          -4.26801861      4.30078597     -2.70678619
H          -4.27342394      3.53904884     -1.10954021
C          -6.23026646      3.60412379     -2.04388334
H          -6.57335910      4.52618433     -1.50951739
C          -6.82568165      3.57118561     -3.46476574
O          -6.82148104      2.54619100     -1.31216335
H          -6.38692389      1.66087289     -1.54270849
O          -6.78311358      4.83829064     -3.99892300
H          -7.15606039      4.88863065     -4.91881604
O          -7.29352400      2.66474488     -4.10214544
          92
 Energy =     -0.94213981 a.u.  #Cluster:   40
C           4.49798829      3.36440974     -0.61556004
C           3.49225901      2.61838273     -1.22998551
C           3.35262965      1.25973782     -0.93361076
C           4.21679236      0.64159027      0.00119878
C           5.23787139      1.39406626      0.59996131
C           5.37285700      2.74771648      0.28546764
H           4.59386631      4.42470472     -0.85678581
H           2.82181398      3.07845136     -1.96373949
H           5.93504742      0.91888293      1.28913346
H           6.17258481      3.32766342      0.74769255
O           3.93978238     -0.66957582      0.30988720
O           2.47803872      0.51265440     -1.71732746
C           5.01576993     -1.49399089      0.84657589
H           6.00739998     -1.03986515      0.71802032
H           4.76964571     -1.66155155      1.89796520
H           4.96367181     -2.41320423      0.25083940
C           1.09053315      0.38644885     -1.32648835
H           0.68807485     -0.06375624     -2.27026080
C           0.41488860      1.74719431     -1.05492352
H           1.05753821      2.40747887     -0.42454728
O           0.35725646      2.37800783     -2.36144975
H          -0.47927262      2.88231383     -2.48004048
C           0.98378996     -0.60402560     -0.15493543
H          -0.06111116     -0.89856622      0.05238477
H           1.46371992     -0.22213067      0.76443485
O           1.61980863     -1.82235364     -0.55498075
H           2.61043795     -1.65435108     -0.57993037
C          -0.97548557      1.59705313     -0.49074013
C          -1.97577572      0.99090871     -1.26403642
C          -1.26736444      2.06363630      0.79841314
C          -3.26814002      0.87038424     -0.75011885
H          -1.76355534      0.60841528     -2.26443784
C          -2.56016269      1.95646966      1.31277159
H          -0.48636349      2.52311719      1.40805564
C          -3.57262008      1.37227971      0.53761608
H          -2.80451333      2.32343435      2.31047109
O          -4.79952584      1.24551988      1.15708754
O          -4.23548730      0.32228529     -1.58648654
C          -5.94511534      1.71793101      0.39397420
H          -5.94081675      1.32064559     -0.62754947
H          -6.78560830      1.32616008      0.97808160
H          -5.93305066      2.81178488      0.39168992
C          -4.65615807     -1.01165634     -1.18228323
H          -5.44265330     -1.23567421     -1.91156019
H          -3.81517120     -1.70411125     -1.27817236
H          -5.04639636     -0.99587876     -0.15942934
C           5.76575112     -4.63013184     -3.16427116
H           5.17803041     -5.56290638     -3.06134945
H           6.11681268     -4.52917810     -4.21029930
C           5.02802923     -3.40356530     -2.67050202
H           4.36097493     -3.62862601     -1.82890767
H           5.92384525     -2.63570468     -2.10772112
C           3.72322690     -1.36677336     -3.02530315
H           3.24500324     -0.67200770     -3.73162367
H           2.95342891     -1.66885290     -2.28233019
H           4.47827403     -0.77670238     -2.45262542
C           3.28238924     -3.33632564     -4.43038388
H           2.73564110     -2.70596280     -5.14899182
H           3.70701061     -4.19226444     -4.97859621
H           2.54535179     -3.73920649     -3.71183139
C           5.37179401     -2.04678923     -4.71142629
H           4.90519400     -1.40725823     -5.47310150
H           6.15722642     -1.44364107     -4.19290918
H           5.90121784     -2.87659360     -5.20858229
N           4.36154483     -2.55577359     -3.70390328
O           6.90613136     -4.88901859     -2.34224160
H           7.39449807     -4.04843330     -2.13912383
Cl          6.96692806     -1.49657921     -1.67753992
C           3.30297085      5.72459651     -5.88992226
H           4.32823861      5.69175640     -5.50038282
H           3.07473006      4.73520736     -6.30813165
H           3.29147116      6.44340369     -6.72205722
C           2.29212335      6.13263542     -4.82759009
H           1.24228166      6.14868526     -5.21462785
C           2.39932644      5.16413683     -3.63420664
O           2.48921752      7.44854708     -4.35773504
H           3.45318254      7.61243892     -4.11910832
O           1.48046226      4.17596152     -3.75608220
H           1.51255990      3.45634502     -3.01050313
O           3.16508997      5.19506137     -2.69510185
C           6.14649748      6.11574188     -2.82389424
H           6.65226379      5.63084195     -3.66687310
H           6.69480901      5.84317712     -1.91081004
H           5.14309103      5.64917327     -2.73609513
C           6.01894002      7.61548372     -2.98133710
H           5.45466420      8.09898862     -2.14431702
C           7.41178614      8.24004359     -3.15570372
O           5.25643785      7.98072798     -4.13361750
H           5.68609021      7.65692857     -4.96315788
O           7.87537315      8.70524601     -1.95512468
H           8.78103739      9.11615707     -2.01943908
O           8.06811151      8.34092235     -4.16303748
          92
 Energy =     -0.93874649 a.u.  #Cluster:   41
C           2.63947276      2.52504988     -0.44219246
C           1.48358430      1.82060556     -0.79372519
C           1.45206226      0.43486915     -0.63369188
C           2.58436287     -0.24749425     -0.12353691
C           3.74244743      0.45896279      0.21226147
C           3.75702494      1.84900503      0.05504021
H           2.66689013      3.60685333     -0.56784375
H           0.60801687      2.33420984     -1.21124602
H           4.61716232     -0.06100931      0.59707221
H           4.65455306      2.40726837      0.32422188
O           2.42156851     -1.60614166      0.06442514
O           0.38572451     -0.32499985     -1.10961784
C           3.59515344     -2.44412780     -0.09446413
H           4.32656357     -2.22117471      0.68823595
H           3.16893263     -3.44910273      0.04166757
H           4.01987907     -2.31577855     -1.09435164
C          -0.82629234     -0.40313386     -0.31957704
H          -1.45384947     -0.98071614     -1.04598800
C          -1.44986187      0.97564490     -0.00599438
H          -0.81070220      1.55529414      0.70453577
O          -1.43064025      1.79379219     -1.17443070
H          -1.93492378      1.34839347     -1.91420776
C          -0.53452754     -1.23590185      0.93680018
H          -1.45039986     -1.55007201      1.46869566
H           0.15386618     -0.72052494      1.63237716
O           0.08163273     -2.46849064      0.52368689
H           0.74275667     -2.26109887     -0.21537237
C          -2.87890567      0.85703703      0.48057443
C          -3.80107463      0.05151020     -0.18861669
C          -3.30519125      1.64960434      1.56339627
C          -5.14452879      0.04346557      0.20635429
H          -3.49881766     -0.56163735     -1.04266243
C          -4.63727160      1.66027388      1.95387580
H          -2.58576884      2.27915863      2.09275944
C          -5.58044821      0.86096274      1.26943997
H          -4.98345359      2.28289352      2.77998462
O          -6.84839954      1.01893742      1.75593363
O          -6.04969090     -0.72720859     -0.52875343
C          -7.95329035      0.39772288      1.04950347
H          -7.97501066     -0.66986481      1.28125577
H          -8.81542233      0.92298849      1.48175716
H          -7.87622424      0.56550805     -0.02938922
C          -6.02699977     -2.13512372     -0.16094022
H          -6.83836253     -2.55302535     -0.76590932
H          -5.06026619     -2.57319937     -0.42484573
H          -6.22918175     -2.25158753      0.90778912
C          -3.97752458      1.62752850     -3.40800941
H          -3.37804563      2.50966987     -3.71439132
H          -4.44489529      1.83862056     -2.42246100
C          -4.97701691      1.25746058     -4.49583068
H          -5.40165173      2.20930559     -4.94819397
H          -4.47078817      0.74855643     -5.34588805
C          -7.05375452      0.18833111     -5.19914876
H          -7.98918915     -0.30872837     -4.96561577
H          -7.43826987      1.35994064     -5.60960323
H          -6.58544102     -0.26136340     -6.06694282
C          -6.91543577      1.10604793     -2.93747543
H          -7.83966665      0.56186047     -2.68326267
H          -6.31522865      1.19896555     -2.01737172
H          -7.23366676      2.12037462     -3.27727218
C          -5.65139772     -0.93029001     -3.51108867
H          -6.48868618     -1.54283278     -3.13920614
H          -5.13602199     -1.50315567     -4.29603169
H          -4.94965393     -0.78854230     -2.66335554
N          -6.15397723      0.39716092     -4.03788434
O          -3.07588441      0.54528176     -3.10093686
H          -2.56535828      0.27694716     -3.89785520
Cl         -7.60391944      2.95398970     -5.76159535
C           4.67867037     -4.44710485      2.63181120
H           5.36890732     -3.67301567      2.28506840
H           3.64167229     -4.06244132      2.54823484
H           4.85119580     -4.58930886      3.70992438
C           4.83197281     -5.76921500      1.90509378
H           4.06030567     -6.52493927      2.22460924
C           4.78366464     -5.52964902      0.38718669
O           6.06229607     -6.41865864      2.18598189
H           6.82832431     -5.81730395      2.03294412
O           3.57217005     -5.93183358     -0.12912642
H           3.52634169     -5.85081966     -1.11899406
O           5.61146899     -5.04842991     -0.34927842
C           0.60135257     -5.51075414      1.09066093
H           1.60646392     -5.79588359      0.73090520
H          -0.01849416     -6.41309296      1.09252351
H           0.17665090     -4.81596624      0.34940992
C           0.66823480     -4.84726267      2.45551566
H          -0.33544415     -4.50934006      2.81222310
C           1.29941869     -5.80110492      3.47563987
O           1.54366995     -3.71495269      2.44434296
H           1.21457035     -3.06267704      1.73461641
O           0.39323634     -6.00795868      4.49374364
H           0.73282753     -6.62290044      5.19677191
O           2.35846763     -6.37604061      3.49763916
          92
 Energy =     -0.93700690 a.u.  #Cluster:   42
C           1.66426588      3.63489557     -0.40373616
C           0.64391945      2.69477199     -0.58359849
C           0.84284636      1.38801253     -0.14173201
C           2.05756426      1.02733923      0.48425200
C           3.07842582      1.96259836      0.64879716
C           2.87033149      3.27392848      0.20449279
H           1.49796125      4.66056641     -0.74645281
H          -0.30000344      3.00192412     -1.06371585
H           4.01054888      1.66300125      1.12526445
H           3.65918419      4.01618299      0.33041331
O           2.23608427     -0.24035629      1.04738684
O          -0.07703123      0.37299328     -0.40057667
C           2.34450356     -1.31124618      0.06387999
H           3.22505456     -1.14206426     -0.56029944
H           2.46455952     -2.19726604      0.69729886
H           1.42664295     -1.35795320     -0.53516512
C          -1.26184857      0.28123337      0.44367894
H          -1.54038622     -0.78535164      0.24352425
C          -2.30413128      1.25182569     -0.15716354
H          -1.97626599      2.32417921     -0.07269819
O          -2.38031358      0.93675645     -1.56762903
H          -1.45883610      0.97841834     -1.94423697
C          -0.97363586      0.49740952      1.92970962
H          -1.89633292      0.41306408      2.54019792
H          -0.46773378      1.45716389      2.13687051
O          -0.15619198     -0.59154036      2.38838903
H           0.73702138     -0.57452851      1.90038010
C          -3.69829349      1.04403467      0.37333182
C          -4.50546082      0.04272985     -0.18166194
C          -4.20473125      1.88417290      1.37463581
C          -5.82579001     -0.10577693      0.24686003
H          -4.09496043     -0.59566509     -0.96715058
C          -5.52106274      1.74352138      1.80743844
H          -3.57587219      2.66241449      1.81359411
C          -6.34689512      0.75165435      1.24937243
H          -5.93861341      2.40127967      2.57177783
O          -7.63206681      0.78625076      1.73108375
O          -6.71399626     -1.01526636     -0.31228731
C          -8.49687100     -0.34521418      1.45489066
H          -8.04766138     -1.26765182      1.83395586
H          -9.40336286     -0.07531155      2.00969876
H          -8.68811464     -0.41605800      0.37788676
C          -6.13760934     -2.25509260     -0.79632639
H          -7.03193017     -2.84701982     -1.02474046
H          -5.54943046     -2.06567132     -1.69908362
H          -5.53752656     -2.73043675     -0.01426654
C          -4.98315742      4.70674292     -0.57636816
H          -4.44373520      3.78525275     -0.27112786
H          -4.40062707      5.57496136     -0.21393786
C          -5.22854965      4.80169022     -2.08671891
H          -6.09398787      5.46997987     -2.27952605
H          -4.31903462      5.26772761     -2.56265285
C          -6.10389853      3.69136048     -4.11092945
H          -6.27620565      2.74541522     -4.65345684
H          -7.07358236      4.20939030     -4.02877484
H          -5.43624047      4.30921074     -4.73958996
C          -6.44195084      2.61925409     -1.91658095
H          -6.75699867      1.69989653     -2.43013703
H          -5.96710784      2.31011977     -0.95701760
H          -7.33088627      3.20258634     -1.61342472
C          -4.20072393      2.68166798     -2.93848916
H          -4.34995235      1.71549624     -3.43501649
H          -3.43579941      3.27398250     -3.48059343
H          -3.68917352      2.46709367     -1.96040699
N          -5.48570026      3.44342827     -2.74742783
O          -6.25611357      4.61464362      0.08635657
H          -6.58043663      5.49413013      0.35146024
Cl         -2.21267411      4.55107862     -1.47351838
C           5.48435417      2.59018520      3.39489178
H           5.58741424      1.50165228      3.50001357
H           4.57140431      2.88484096      3.93281762
H           5.31505655      2.79732197      2.32722991
C           6.70149155      3.35069629      3.89282885
H           6.56832425      4.46101917      3.84546945
C           7.03802885      2.90142736      5.32363353
O           7.84550021      3.13375783      3.08023662
H           8.09806519      2.17922652      3.06521063
O           6.48796815      3.77715171      6.22356274
H           6.66238768      3.52471437      7.17093807
O           7.67309373      1.94597586      5.69502648
C           1.38190864     -2.57424553      7.81659596
H           1.25006638     -1.66710069      8.42859823
H           0.43017245     -3.12359716      7.81920634
H           2.13969747     -3.18708244      8.32151233
C           1.82083077     -2.20899347      6.41014878
H           2.36701085     -3.04140513      5.90228529
C           0.63462773     -1.80555510      5.52042068
O           2.72537874     -1.10892652      6.55659627
H           2.79666722     -0.60422376      5.70706651
O           1.06005870     -0.87904156      4.62428399
H           0.34722930     -0.62407717      3.89738359
O          -0.49846774     -2.22457774      5.52395888
          92
 Energy =     -0.93599447 a.u.  #Cluster:   43
C           3.38423448      3.87758223     -0.26103395
C           2.30507988      3.02353107     -0.02649538
C           2.49829372      1.82304825      0.66534984
C           3.78823397      1.47957204      1.13726462
C           4.87734402      2.32857597      0.85570549
C           4.66715400      3.52280702      0.16760238
H           3.22489208      4.81618871     -0.78852523
H           1.30799448      3.27411885     -0.40532314
H           5.87272845      2.02841733      1.17199717
H           5.51018702      4.18089734     -0.03779060
O           4.16338832      0.37639531      1.85820739
O           1.47372056      0.88866553      0.78505758
C           3.12914700     -0.55085258      2.29624146
H           2.60865181     -0.96408228      1.42720985
H           3.71234343     -1.30565269      2.82750417
H           2.41428761     -0.03027425      2.96646722
C           0.29037720      1.22299533      1.57128031
H          -0.05880311      0.18267202      1.80494840
C          -0.70064040      1.97107947      0.63723955
H          -0.64025636      3.08154590      0.75440177
O          -0.34319646      1.76129369     -0.73467667
H           0.33887576      1.03813233     -0.80359304
C           0.57892407      1.97930164      2.87016960
H          -0.33001887      2.49512889      3.24502322
H           1.39580500      2.71692668      2.76547510
O           0.93077397      0.98169031      3.82260536
H           1.57735461      1.41234363      4.54787554
C          -2.12880100      1.51519727      0.85530708
C          -2.77575157      0.74261865     -0.11493310
C          -2.81216592      1.90507470      2.01819201
C          -4.11571011      0.38711797      0.06799778
H          -2.24934241      0.43400235     -1.02228850
C          -4.15522264      1.57417596      2.19427658
H          -2.29836234      2.47892108      2.79496896
C          -4.81728260      0.83427225      1.20671613
H          -4.69365979      1.88687900      3.09562936
O          -6.15183574      0.50845340      1.46115514
O          -4.73080698     -0.32784206     -0.95670391
C          -7.07757543      0.88387864      0.39824446
H          -6.74555457      0.47639788     -0.56471772
H          -8.01340591      0.42329445      0.72712544
H          -7.14811464      1.97805717      0.35415903
C          -5.09867665     -1.68226068     -0.57263085
H          -5.62114214     -2.04193365     -1.46503860
H          -4.19259700     -2.26357874     -0.38029188
H          -5.75540046     -1.66688256      0.30403982
C           4.98463612      4.06448241      3.72961505
H           5.68384161      4.55138525      3.02768066
H           4.44827265      3.23116688      3.23343818
C           5.66956311      3.64720735      5.04806012
H           6.42622327      4.40506832      5.34077147
H           4.87702046      3.71570984      5.85001388
C           6.11607409      1.69577421      6.48109655
H           6.59363528      0.71375473      6.60095434
H           6.52147052      2.38501751      7.24491132
H           5.02305272      1.56771170      6.69286577
C           7.78486578      2.38647026      4.79331006
H           8.28763206      1.40678983      4.79562463
H           7.95309346      2.85063015      3.80686240
H           8.28751059      3.02075125      5.55406669
C           5.71606950      1.28286886      4.09670438
H           6.10490609      0.26450593      4.23857176
H           4.59798859      1.21492304      4.19736055
H           5.89933787      1.57361549      3.04601776
N           6.30301675      2.25735832      5.08520793
O           4.05480717      5.08812955      4.06113455
H           3.23822715      4.67780993      4.47543471
Cl          2.86904896      2.39999483      5.34660208
C          -8.01746996      3.93922134      4.43716003
H          -7.17307659      4.26342066      5.06773138
H          -8.60666341      4.82328172      4.17358950
H          -8.63617502      3.28148306      5.06558734
C          -7.52940312      3.18428770      3.21375727
H          -8.35548211      2.91493202      2.51432105
C          -6.46817698      4.02209575      2.46967568
O          -6.90137771      2.00501294      3.70005860
H          -6.70139180      1.36736502      2.94191557
O          -6.72587064      3.94153520      1.11271874
H          -6.06391167      4.43387536      0.55838775
O          -5.54109385      4.67910832      2.86085947
C          10.26148300      4.19003699      8.38908350
H          10.25464990      5.28149831      8.52406509
H          10.92684357      3.77365501      9.15965864
H          10.73143259      3.99312429      7.41519423
C           8.87362764      3.58216525      8.45569766
H           8.88182058      2.47042634      8.33974554
C           8.18856414      4.00026496      9.76588795
O           8.04976086      4.01674488      7.37268805
H           7.90427624      4.99832272      7.41258958
O           8.22289384      2.95560661     10.64706186
H           7.79721132      3.16849341     11.52639642
O           7.68465950      5.05673983     10.04936112
          92
 Energy =     -0.92827934 a.u.  #Cluster:   44
C           3.61021118      2.56911863     -0.48906886
C           2.33054554      2.01045644     -0.47024176
C           2.14300982      0.76475565      0.13027870
C           3.23252907      0.08464672      0.72372328
C           4.51876938      0.61951368      0.64379026
C           4.69951428      1.87596451      0.05204008
H           3.76898906      3.55772870     -0.92847247
H           1.47581340      2.52787226     -0.92333532
H           5.35874344      0.05570972      1.04455597
H           5.69838658      2.33405558      0.02508590
O           3.05775103     -1.05581382      1.50306126
O           0.91900593      0.09808950      0.06749227
C           2.58227392     -2.22411262      0.77400992
H           3.33605661     -2.51603970      0.03839720
H           2.48524163     -2.97442485      1.56643781
H           1.61973498     -2.00488744      0.29406273
C          -0.14717805      0.52443668      0.95536622
H          -0.72607936     -0.43483387      1.01116609
C          -0.95210283      1.64383887      0.23180300
H          -0.69308540      2.66862594      0.59234340
O          -0.60647585      1.69715500     -1.15164682
H          -0.15190744      0.85561944     -1.42942675
C           0.32444641      0.94523491      2.34964245
H          -0.51914966      1.32808604      2.96118512
H           1.12840298      1.70311124      2.30849707
O           0.77501678     -0.19036961      3.08931719
H           1.58056509     -0.58680391      2.64021693
C          -2.43251123      1.36921709      0.39661990
C          -3.13288898      0.64512795     -0.57332817
C          -3.08135112      1.82380081      1.55475221
C          -4.48889815      0.36372694     -0.37612628
H          -2.64068277      0.31417456     -1.49135088
C          -4.43657737      1.56032089      1.74854950
H          -2.54138729      2.40186380      2.30356356
C          -5.14132592      0.82873579      0.78400514
H          -4.95878068      1.91699128      2.64140399
O          -6.46764134      0.50619267      1.07458520
O          -5.13336486     -0.30155721     -1.40711381
C          -7.44779585      1.16603389      0.21593356
H          -7.30288948      0.84935495     -0.82138131
H          -8.39911488      0.80882686      0.64322102
H          -7.35630131      2.25043340      0.31557873
C          -5.77450222     -1.54812864     -1.01539543
H          -6.35330522     -1.79740175     -1.91151759
H          -4.99872271     -2.29414673     -0.82296205
H          -6.41844450     -1.40505365     -0.14077591
C           9.13954883      2.72457609      4.48833298
H          10.04590213      2.73054620      3.85324944
H           8.89672859      3.77517056      4.75702462
C           7.98976395      2.01272433      3.77188657
H           8.00152298      2.33382867      2.68325766
H           8.14975833      0.91583273      3.77753077
C           5.57426068      1.63466942      3.47064807
H           4.55473686      1.77053192      3.86552559
H           5.57345369      2.09024921      2.44896915
H           5.76804038      0.55759416      3.36662783
C           6.33921683      3.79157662      4.31004277
H           5.30862196      4.05713008      4.53993916
H           7.02252121      4.38444211      4.91691383
H           6.52309769      4.18250119      3.13536224
C           6.48546923      1.78302138      5.74830696
H           5.53314355      2.08926673      6.21049051
H           6.53775322      0.68387456      5.77240797
H           7.31110829      2.16156769      6.38795441
N           6.60484827      2.32544256      4.34055774
O           9.42104082      2.11406009      5.75363641
H           9.92003877      1.27944753      5.64080009
Cl          6.97593713      4.16327634      1.50236592
C          -7.79921028      1.11957294      5.84638346
H          -7.76333774      2.21811578      5.81897262
H          -8.67637984      0.81970012      6.43457731
H          -6.89882915      0.79287343      6.38417737
C          -7.83565392      0.53124781      4.44708619
H          -7.61267225     -0.56604969      4.43640559
C          -9.19110926      0.74882061      3.75127256
O          -6.84415091      1.22828811      3.70809738
H          -6.84486000      0.95501467      2.73379852
O         -10.23955319      0.53890287      4.61169795
H         -11.12485030      0.65336050      4.17030601
O          -9.41176567      1.01952003      2.59445665
C          -1.88025694     -1.31399018      4.40637472
H          -2.54821156     -0.44488861      4.43097675
H          -1.35151595     -1.35563044      5.36772317
H          -1.09943820     -1.09661956      3.65068816
C          -2.60505891     -2.60682283      4.08420624
H          -1.90776900     -3.45965371      3.88467984
C          -3.56661703     -2.95529564      5.23371814
O          -3.35780588     -2.53387600      2.88334538
H          -3.98116221     -1.76760728      2.89024471
O          -2.96850337     -3.86321559      6.07494656
H          -3.54274182     -4.12096553      6.84469034
O          -4.68278004     -2.55292047      5.47120908
          92
 Energy =     -0.92694848 a.u.  #Cluster:   45
C           2.98995014      3.50125155      0.86221136
C           2.26144645      2.58089888      0.10959205
C           2.56410518      1.21796032      0.21387604
C           3.67024860      0.81241135      0.99088291
C           4.40594268      1.73452786      1.74013209
C           4.03608479      3.08051785      1.69569673
H           2.73312350      4.56364373      0.79896874
H           1.46476533      2.91090809     -0.58360754
H           5.24707971      1.39711767      2.34105439
H           4.57158826      3.80902684      2.30679672
O           4.03052116     -0.54971322      1.02955719
O           1.88828883      0.23067241     -0.48391866
C           4.96228810     -0.87066537     -0.03936131
H           5.92618437     -0.39214544      0.17610009
H           5.04929158     -1.95980546      0.00448624
H           4.56697711     -0.52267158     -1.00077226
C           0.48111280     -0.00867296     -0.15665554
H           0.23865881     -0.70906452     -0.99028736
C          -0.46198621      1.22308579     -0.23191353
H          -0.16534132      1.99304632      0.53555895
O          -0.35683257      1.75155459     -1.50770580
H          -0.56961485      2.91662024     -1.44683003
C           0.44192741     -0.68892028      1.22044667
H          -0.51582566     -1.20670697      1.41131421
H           0.65151832      0.01782969      2.04907051
O           1.42361478     -1.74131492      1.24610029
H           2.33198291     -1.32444653      1.16078531
C          -1.88277387      0.73665005      0.04720751
C          -2.64248724      0.20883541     -0.99210548
C          -2.41443095      0.82471567      1.34704465
C          -3.94357892     -0.26735595     -0.73583119
H          -2.24794069      0.20427460     -2.01235822
C          -3.70084057      0.36613838      1.60576679
H          -1.82536824      1.26532700      2.14968490
C          -4.46881661     -0.18992923      0.57110125
H          -4.12198147      0.42580924      2.60768961
O          -5.72030127     -0.74766193      0.82910073
O          -4.53468662     -0.81522905     -1.85031890
C          -6.67757691      0.17581596      1.40991998
H          -6.83280178      1.02600852      0.73929665
H          -7.57769568     -0.44291252      1.49143522
H          -6.33896251      0.50664523      2.39512787
C          -5.93742023     -1.16897976     -1.77391087
H          -6.12355892     -1.56599733     -2.77728319
H          -6.09640549     -1.92695772     -0.99754095
H          -6.53774514     -0.27750268     -1.57299701
C           4.06688184     -3.92328914     -3.19540382
H           3.42228122     -3.10761846     -3.59105270
H           5.10095644     -3.76802996     -3.55772825
C           4.05169786     -4.00930119     -1.65995367
H           4.50420761     -4.97599119     -1.33831423
H           4.70227186     -3.20017997     -1.23358426
C           2.80864687     -3.90478452      0.46392970
H           1.81826553     -3.76683286      0.96950863
H           3.25118539     -4.83988805      0.83289962
H           3.41778026     -3.05098312      0.83109026
C           1.78434684     -5.04409240     -1.46217042
H           0.74492858     -4.91147863     -1.10685009
H           1.75135926     -5.14214989     -2.57162982
H           2.15643093     -6.00407326     -1.07002700
C           2.00920280     -2.59104717     -1.46758974
H           1.07445424     -2.39317264     -0.88320528
H           2.63719081     -1.69624468     -1.24840407
H           1.75000865     -2.57847063     -2.53876433
N           2.65885778     -3.88328973     -1.04205483
O           3.49916115     -5.10030139     -3.76498996
H           4.16777257     -5.81120760     -3.86466623
Cl         -0.66522407      4.42598828     -0.93728442
C          -0.43553900      3.90959776      2.08083879
H           0.11870299      4.84401860      1.90247934
H          -0.01639160      3.17023482      1.36722867
H          -1.46591931      4.09543767      1.73073675
C          -0.38155991      3.42891847      3.51149520
H          -1.07583392      2.57698241      3.72084127
C           1.06062036      3.02949067      3.84981814
O          -0.81405752      4.43191655      4.43122966
H          -0.30455556      5.30786232      4.28520445
O           1.28274219      1.74591461      3.37584391
H           2.23056908      1.46133891      3.47433441
O           1.94897721      3.62505695      4.39542772
C          -2.01271282      7.11487599      0.37311657
H          -0.92870214      6.94204354      0.27186548
H          -2.47609075      6.13821900      0.14302032
H          -2.29905046      7.79884001     -0.43616397
C          -2.42523812      7.65205204      1.72730886
H          -3.53271503      7.74664239      1.84369466
C          -1.83267271      6.74490205      2.81679362
O          -1.96654518      8.97884531      1.95516352
H          -0.98384122      9.03049832      1.86573273
O          -2.71161370      5.80075624      3.22594731
H          -2.26686755      5.11262278      3.87569645
O          -0.71015806      6.78968327      3.29071593
          92
 Energy =     -0.92581009 a.u.  #Cluster:   46
C           3.11581720      3.16085909      0.21429527
C           2.10125494      2.34501521     -0.29780290
C           2.22753367      0.96005934     -0.18316156
C           3.37983633      0.38849154      0.40570063
C           4.39766379      1.21099176      0.89843652
C           4.25037710      2.59912142      0.80752603
H           3.01693609      4.24520145      0.15315122
H           1.22282605      2.77369448     -0.78591855
H           5.27834565      0.75960714      1.35378057
H           5.03478745      3.24719729      1.20125788
O           3.49465076     -0.97926085      0.61448027
O           1.29701660      0.08165923     -0.73375092
C           3.53745877     -1.77415414     -0.60889904
H           4.44979110     -1.53489284     -1.16183533
H           3.55896342     -2.79638665     -0.21618868
H           2.64246520     -1.58821996     -1.21828786
C           0.03003349     -0.09887750     -0.04586402
H          -0.29610191     -1.04965447     -0.54086090
C          -0.89540561      1.09018354     -0.40297506
H          -0.47125465      2.05126149     -0.01133432
O          -0.81014291      1.28046297     -1.82037802
H          -1.48608395      0.74676168     -2.29794337
C           0.18880251     -0.29277875      1.46510132
H          -0.79864628     -0.42315222      1.95478055
H           0.72671289      0.54951823      1.94218763
O           0.86475320     -1.51516777      1.73832799
H           1.81029280     -1.45633862      1.40437279
C          -2.31246569      0.87104066      0.07014815
C          -3.05608370     -0.21508239     -0.40448950
C          -2.87703858      1.77360475      0.98035009
C          -4.38389471     -0.39508434      0.02307696
H          -2.63974673     -0.93061544     -1.11279063
C          -4.18843351      1.59217945      1.41911995
H          -2.31846540      2.64212470      1.35269832
C          -4.94019334      0.50781320      0.95660228
H          -4.63737945      2.31409341      2.10830243
O          -6.21725840      0.28300107      1.47104744
O          -5.00347845     -1.45560816     -0.58922718
C          -7.16257946      1.33530669      1.13289267
H          -7.26939512      1.39980245      0.04588212
H          -8.08631827      0.98528148      1.60503827
H          -6.83165082      2.28959590      1.55504395
C          -6.21785761     -1.98613630      0.00884767
H          -6.46966869     -2.80595198     -0.67865089
H          -5.99130604     -2.37641090      1.00553373
H          -6.99686829     -1.22082282      0.04348356
C          -2.09975932      3.13358404      6.20626630
H          -1.63392578      2.76470571      5.26788359
H          -2.50718945      4.14610169      6.02853749
C          -3.13655034      2.15175975      6.79627206
H          -2.57046466      1.29563180      7.23749825
H          -3.66855115      2.64707210      7.63908989
C          -5.05164601      0.63777118      6.54743483
H          -5.82023594      0.21262094      5.87771587
H          -4.47191610     -0.20141262      6.96345076
H          -5.58491385      1.13354152      7.37581460
C          -3.47920612      0.89510129      4.67043610
H          -4.20879777      0.47941089      3.95109405
H          -2.84733861      1.59955326      4.07625817
H          -2.83629246      0.07957129      5.03338291
C          -4.99280944      2.73494412      5.26838325
H          -5.81164300      2.41840418      4.62683268
H          -5.34545401      3.43884695      6.01670088
H          -4.29149541      3.44766349      4.47516743
N          -4.16625756      1.62627226      5.80230815
O          -1.02366867      3.15727448      7.14642202
H          -1.12925041      3.89063868      7.78660032
Cl         -3.19523590      4.12006373      3.47299078
C          -2.78354982     -4.84926276     -0.41964869
H          -2.73418763     -5.90498715     -0.12593467
H          -1.95671324     -4.65577476     -1.11864630
H          -2.58558449     -4.25511515      0.48716600
C          -4.12344885     -4.46829181     -1.01920942
H          -4.20558588     -3.36459789     -1.22465814
C          -4.39070212     -5.29128055     -2.28683923
O          -5.20315864     -4.71242122     -0.12313398
H          -5.28752990     -5.67505878      0.07841831
O          -3.86034211     -4.66998734     -3.38611479
H          -4.02012272     -5.17366043     -4.23084339
O          -4.97417334     -6.34352692     -2.39070035
C           2.74263628      2.35843125     -3.89701584
H           3.59758186      1.76675627     -4.26345224
H           2.76327377      3.32786855     -4.40436746
H           2.92035157      2.52402116     -2.82587111
C           1.43606700      1.61220237     -4.10753981
H           0.54505652      2.20804100     -3.78935215
C           1.29624384      1.17245643     -5.57290292
O           1.47230146      0.37471979     -3.39421435
H           1.00578934      0.48725025     -2.50731749
O          -0.01877989      1.32024428     -5.95923102
H          -0.18578347      1.00857745     -6.88791882
O           2.10842916      0.76813326     -6.36809417
          92
 Energy =     -0.90528911 a.u.  #Cluster:   47
C           3.51975226      2.08499520      0.47077326
C           2.40917610      1.56244503     -0.20855462
C           2.42584413      0.22407814     -0.60181901
C           3.57638060     -0.56266374     -0.36184919
C           4.69997157     -0.02896446      0.26270706
C           4.65260349      1.30197618      0.70078265
H           3.46045149      3.10559597      0.85945919
H           1.52004050      2.18136225     -0.38647823
H           5.57908799     -0.65090430      0.42987183
H           5.50275616      1.71990306      1.23667790
O           3.58758109     -1.93478897     -0.67483483
O           1.39566605     -0.38925671     -1.30494417
C           3.52283410     -2.18391686     -2.10705253
H           4.26910843     -1.57497178     -2.62710712
H           3.76065070     -3.24585796     -2.19334621
H           2.51165207     -1.93612588     -2.45926327
C           0.07471489     -0.48807250     -0.69821502
H          -0.37030461     -1.21700878     -1.41894724
C          -0.70148602      0.84477670     -0.74677964
H          -0.09185873      1.68617235     -0.31334352
O          -0.88149222      1.07758911     -2.16126874
H          -1.33778974      1.93291835     -2.29754906
C           0.16914401     -1.05459897      0.72243862
H          -0.81230167     -1.34003837      1.13613482
H           0.67553743     -0.35147448      1.43314222
O           0.91177726     -2.28851211      0.67370031
H           1.83325223     -2.07760799      0.35853189
C          -2.05687824      0.72573914     -0.08561124
C          -3.07161926     -0.00518909     -0.70934848
C          -2.29541510      1.34777475      1.15366952
C          -4.32207011     -0.11073579     -0.09149934
H          -2.89475472     -0.48249034     -1.67362377
C          -3.54765426      1.26803902      1.75305034
H          -1.47600808      1.89827141      1.66116844
C          -4.58005272      0.53865585      1.13089196
H          -3.74743847      1.75802118      2.70708121
O          -5.74952505      0.49072277      1.85703267
O          -5.34036388     -0.84103674     -0.73340743
C          -6.99459764      0.47212711      1.11233057
H          -7.05125373     -0.40719306      0.46259085
H          -7.73710440      0.42745054      1.91704756
H          -7.08540281      1.39493625      0.53266923
C          -5.24488273     -2.27547706     -0.47849402
H          -6.00114396     -2.69289241     -1.16237556
H          -4.24780979     -2.64199654     -0.72966754
H          -5.49037266     -2.46238109      0.56970301
C           0.37422753     -7.80419184     -1.46830737
H          -0.60908546     -7.93925936     -1.96071657
H           1.17167657     -8.05568347     -2.19811192
C           0.49655630     -6.37886315     -0.91201596
H           0.13701436     -5.64823965     -1.67909523
H          -0.18752806     -6.25554430     -0.03672866
C           1.87158425     -4.54358800     -0.04107143
H           2.88447849     -4.15696548      0.22607515
H           1.47242901     -3.86168090     -0.82242827
H           1.23153568     -4.38048567      0.85589121
C           2.87610502     -6.12354038     -1.63240858
H           3.89056488     -5.74933426     -1.35129522
H           2.99958544     -7.17451864     -1.94281427
H           2.55433879     -5.53318228     -2.50778255
C           2.37369487     -6.84136276      0.67513824
H           3.41338117     -6.57576177      0.97191062
H           1.73861470     -6.69926601      1.56649704
H           2.34636299     -7.92072662      0.42157343
N           1.90931354     -5.98451787     -0.47919122
O           0.55656742     -8.77292570     -0.43838258
H          -0.27352250     -8.91552771      0.06897037
Cl          0.91710365      1.93853668      2.14527841
C          -7.91033445     -0.87180154     -5.49057343
H          -8.60236666     -1.55131298     -4.97742959
H          -8.03279141      0.12538381     -5.04538172
H          -8.23900551     -0.81062945     -6.53784103
C          -6.46573671     -1.34211512     -5.41702146
H          -5.75449214     -0.62958452     -5.90318227
C          -6.08710488     -1.59565252     -3.94896779
O          -6.26461847     -2.54846456     -6.14396510
H          -6.73984881     -3.29956545     -5.71359289
O          -5.55953495     -0.49294610     -3.38692823
H          -5.35130702     -0.59898779     -2.36729828
O          -6.23567769     -2.63879263     -3.34339820
C           5.99231157     -3.02165434      1.59940156
H           7.02032196     -3.29038979      1.87615431
H           6.02956530     -2.00646679      1.14445830
H           5.40706405     -2.90845163      2.52665141
C           5.34073801     -4.00884147      0.66228676
H           4.36752804     -3.61631797      0.23649518
C           6.30412360     -4.41816553     -0.46427374
O           4.94548241     -5.22614033      1.30585467
H           5.61423237     -5.50571265      1.97596224
O           5.59020617     -4.58307693     -1.64104357
H           6.17716259     -4.78759690     -2.41865726
O           7.48691790     -4.63094967     -0.45395826
          92
 Energy =     -0.88822438 a.u.  #Cluster:   48
C           3.63053356      2.50126619      0.27234009
C           2.48370249      1.81429571     -0.14021601
C           2.34981587      0.46725892      0.19943977
C           3.37773142     -0.18313473      0.92318231
C           4.52694229      0.49766541      1.31781812
C           4.63746388      1.85596232      0.99732213
H           3.74575732      3.55486696      0.00914470
H           1.71594383      2.30315803     -0.75314367
H           5.31356208     -0.02189819      1.85869587
H           5.53592645      2.40673622      1.29970017
O           3.21097674     -1.52974949      1.29317241
O           1.32995816     -0.36265802     -0.22649341
C           3.40228904     -2.44012606      0.16925226
H           4.40744372     -2.30564998     -0.24356028
H           3.28532427     -3.42609309      0.61942744
H           2.63312688     -2.23901354     -0.59155850
C          -0.05506960     -0.08140850      0.10813833
H          -0.51409999     -0.93288216     -0.45743397
C          -0.62302399      1.28014879     -0.37279188
H          -0.07779976      2.12804073      0.10790584
O          -0.31157703      1.44018713     -1.75525297
H          -1.10179926      1.25371842     -2.32035420
C          -0.23379801     -0.23419079      1.62658649
H          -1.29099790     -0.42244228      1.90351916
H           0.15062623      0.63624283      2.18717651
O           0.47604249     -1.39558798      2.09152538
H           1.36005642     -1.45481137      1.60888869
C          -2.10458580      1.30758768     -0.08312773
C          -2.92517303      0.27121869     -0.56520783
C          -2.64666804      2.34657461      0.67034709
C          -4.28220222      0.24960731     -0.23924379
H          -2.53516867     -0.50758182     -1.21610283
C          -4.00629477      2.33050261      1.01486328
H          -2.02730739      3.17884732      0.99549263
C          -4.81677299      1.27036754      0.61181964
H          -4.42982407      3.14134061      1.60312056
O          -6.09306184      1.08430769      1.07622493
O          -4.96963096     -0.82181352     -0.73360923
C          -6.97446265      2.24430454      1.00830871
H          -6.91888219      2.69018184     -0.00921609
H          -7.96214630      1.77804413      1.14190337
H          -6.72763435      2.94432905      1.80073351
C          -6.38408271     -0.60396964     -1.04992337
H          -6.49533401      0.29760716     -1.67733605
H          -6.63520032     -1.51575079     -1.59406163
H          -6.96233436     -0.49660470     -0.12433836
C           2.03688130     -6.45481438      3.83308686
H           1.31572156     -6.57924672      2.99692223
H           2.89456207     -7.13459303      3.66574074
C           2.53183149     -5.00669273      3.98585409
H           3.06977892     -4.89871683      4.95700547
H           3.28441001     -4.78803568      3.18944839
C           2.07746161     -2.58964452      3.99199573
H           1.31326131     -1.77369862      3.89926986
H           2.62645493     -2.43577326      4.93162063
H           2.77847887     -2.40849624      3.14653407
C           0.47160876     -4.10197714      5.08081995
H          -0.37979454     -3.39997055      4.99087755
H           0.05630332     -5.13406068      5.13367771
H           0.96713039     -3.90799939      6.04624371
C           0.65529624     -4.08103330      2.62440028
H          -0.05335961     -3.21559475      2.48552263
H           1.31674332     -4.05314765      1.74236780
H           0.04955926     -5.00171795      2.59057950
N           1.42633800     -3.95243172      3.91684043
O           1.28920611     -6.85143108      4.97885501
H           1.87142966     -7.21611282      5.68140683
Cl         -9.25983552      0.84973365     -1.14386152
C           8.16380887      4.03354885      3.52066623
H           8.41049599      3.33252298      4.32813123
H           8.74196219      4.95226098      3.69402708
H           7.09989623      4.29108006      3.63532266
C           8.42304329      3.45694296      2.13978444
H           8.19486049      4.18008555      1.31635471
C           9.87180042      2.95427193      2.05129546
O           7.56411583      2.36029067      1.85372376
H           7.75315830      1.59413628      2.44860286
O          10.68297936      3.93770133      1.55786826
H          11.63751538      3.65733546      1.48133473
O          10.30909059      1.87162966      2.35683558
C          -7.51218774      4.64827408     -2.06438073
H          -6.63344569      4.91223459     -1.46410043
H          -7.72567417      5.46884879     -2.75147250
H          -8.35750548      4.54808957     -1.37157686
C          -7.29663742      3.31510166     -2.79174189
H          -8.16457445      3.06812105     -3.45179102
C          -6.02499694      3.45252011     -3.66375532
O          -7.03964076      2.29095223     -1.90947196
H          -8.07298654      1.64515976     -1.63593411
O          -6.38542346      3.29154212     -4.99729098
H          -5.62212044      3.33688175     -5.61520245
O          -4.86644157      3.68213733     -3.41718993
          92
 Energy =     -0.82817757 a.u.  #Cluster:   49
C           3.33736430      2.93377675      0.20120806
C           2.35226609      2.14139727     -0.40394920
C           2.31092805      0.77472987     -0.12161050
C           3.26009991      0.19689624      0.74074673
C           4.25889907      0.99008588      1.30296268
C           4.26610874      2.36840824      1.07656718
H           3.37188962      3.99842933     -0.01872396
H           1.63680243      2.52754264     -1.13083672
H           5.03441283      0.48283145      1.87635259
H           5.03972555      2.98632096      1.54968226
O           3.22262574     -1.16634202      1.05651516
O           1.37777541     -0.05068570     -0.74639465
C           3.73476088     -1.97541552     -0.04864682
H           4.77709983     -1.64442006     -0.27406061
H           3.74481852     -2.97925303      0.37924700
H           3.03679859     -1.86967396     -0.88443490
C           0.05736640     -0.06226976     -0.16032294
H          -0.42634079     -0.82441965     -0.80311530
C          -0.68173867      1.28281273     -0.37305340
H          -0.19222399      2.12593915      0.16317018
O          -0.54440034      1.57824168     -1.77752296
H          -1.33937938      2.04653355     -2.11174685
C           0.07508363     -0.50672235      1.31841950
H          -0.94037956     -0.54076749      1.75925538
H           0.70028088      0.17375382      1.92270744
O           0.55810715     -1.84652749      1.40583502
H           1.57150244     -1.80666721      1.37265264
C          -2.11860081      1.15352545      0.08481270
C          -3.04851190      0.39656249     -0.63209860
C          -2.51660756      1.78369192      1.28090311
C          -4.37827649      0.35639924     -0.20857967
H          -2.75023776     -0.17022757     -1.51655514
C          -3.84316604      1.76960930      1.69699434
H          -1.77822102      2.29781277      1.89793746
C          -4.79706051      1.07364980      0.93437383
H          -4.17429435      2.26948152      2.61079814
O          -6.08142568      1.03894340      1.44369979
O          -5.26390375     -0.32149401     -1.04157866
C          -7.13883383      1.42613924      0.52360137
H          -7.02344019      0.93487219     -0.44974416
H          -8.02380191      1.07004774      1.06217171
H          -7.14619972      2.51648026      0.43213214
C          -5.87284863     -1.50089890     -0.45127608
H          -6.57546637     -1.82425679     -1.22192834
H          -5.12784354     -2.27403075     -0.26131298
H          -6.40464850     -1.26119058      0.46968851
C           3.42125746     -4.05763613     -2.72765763
H           3.06434588     -4.52794207     -1.78930146
H           4.14083667     -3.24855017     -2.48097382
C           3.95319096     -5.06063335     -3.77185738
H           3.07309778     -5.64208105     -4.14361376
H           4.28232990     -4.48879231     -4.67288163
C           5.47409160     -6.92958539     -4.37390760
H           6.28179895     -7.61078912     -4.04258915
H           4.64650958     -7.57858416     -4.70422486
H           5.86741681     -6.39819562     -5.25709099
C           4.56219769     -6.80808971     -2.10655542
H           5.33869966     -7.51241236     -1.75580483
H           4.29496496     -6.16702859     -1.24267641
H           3.66733620     -7.39850240     -2.36428751
C           6.25522945     -5.17824592     -2.83178053
H           7.08529984     -5.82902100     -2.50313086
H           6.63491258     -4.52031502     -3.63380713
H           6.02339207     -4.51372631     -1.96649255
N           5.05337841     -5.98042453     -3.27150694
O           2.28818822     -3.56562249     -3.45601876
H           2.02543967     -2.67296993     -3.11955190
Cl          7.24612364     -1.64347427      0.11521114
C           7.11582005     -9.94167873     -7.14752354
H           7.15370046    -10.46788080     -6.18345290
H           8.01881854    -10.24876709     -7.71914608
H           7.16656875     -8.86635473     -6.93672862
C           5.86227762    -10.30152419     -7.92848405
H           5.78391598     -9.68479007     -8.85886364
C           5.90477539    -11.79091904     -8.30983532
O           4.64324312    -10.18256943     -7.17749194
H           4.53309825     -9.30303070     -6.77112875
O           6.47979243    -11.85901966     -9.56613936
H           6.51670068    -12.79234372     -9.92249590
O           5.57104586    -12.78706751     -7.73448063
C           8.40469132     -1.36330601      4.55595191
H           7.76020311     -2.03701148      5.13040212
H           7.94785459     -0.36746088      4.66322088
H           8.30660377     -1.64363355      3.47526097
C           9.87525947     -1.35663010      4.94274253
H          10.46435643     -0.70100295      4.24760488
C          10.18264252     -0.86399371      6.37896769
O          10.53135522     -2.61259668      4.81250512
H          10.17862473     -3.28965290      5.44585131
O          10.70551903      0.41629066      6.38424416
H          11.11944412      0.63219423      7.29652974
O          10.15080549     -1.44780277      7.43421832
          92
 Energy =     -0.82138807 a.u.  #Cluster:   50
C           3.34132339      2.94737225     -0.07285580
C           2.26131860      2.15918060     -0.47543157
C           2.26717172      0.81820082     -0.09927401
C           3.34009080      0.25316153      0.61018458
C           4.42128846      1.03937371      0.99779005
C           4.38701881      2.39971673      0.67420874
H           3.37727305      3.98905762     -0.37198023
H           1.43409023      2.53503345     -1.10977537
H           5.26257185      0.58061255      1.49569550
H           5.22040934      3.02824366      0.96900563
O           3.30459603     -1.10434973      0.97348489
O           1.31878046     -0.09492127     -0.52332906
C           3.62564838     -1.94757682     -0.18216477
H           4.62540881     -1.73100760     -0.57578225
H           3.58390498     -2.94834502      0.24457369
H           2.86710284     -1.79308865     -0.96097399
C          -0.01073916      0.02439945      0.01157103
H          -0.46143291     -0.76083301     -0.62130068
C          -0.74709101      1.37980482     -0.27348853
H          -0.32014501      2.16206525      0.38734633
O          -0.55348713      1.76115259     -1.59670404
H          -1.62548252      1.90743219     -2.15731974
C           0.03500599     -0.26316677      1.53303685
H          -0.95442213     -0.48330785      1.94710813
H           0.47423862      0.63690136      2.00487452
O           0.81651619     -1.41204829      1.93124161
H           1.56977670     -1.52014910      1.18397410
C          -2.20494027      1.22648040      0.16581465
C          -3.09569900      0.48326180     -0.60394827
C          -2.64264486      1.82780656      1.35563968
C          -4.41412366      0.31037647     -0.17717432
H          -2.79733621      0.08864880     -1.57457809
C          -3.98711196      1.72177617      1.75015058
H          -2.00353233      2.43273419      1.96860776
C          -4.87604012      0.97556387      0.98044904
H          -4.40608427      2.28118365      2.58182802
O          -6.19489863      0.91334318      1.44494051
O          -5.25358545     -0.39790541     -1.03002562
C          -7.13776393      1.53547299      0.50692328
H          -7.04046384      1.07590548     -0.48473533
H          -8.09735250      1.30503876      0.97540190
H          -6.99029629      2.62070510      0.43915453
C          -5.76763914     -1.61082204     -0.42546486
H          -6.42655965     -1.99762081     -1.20521706
H          -4.96404957     -2.32382239     -0.21416568
H          -6.31905674     -1.39743604      0.49434571
C           0.14786441     -0.25042978      8.43842092
H           0.41531702     -1.30079970      8.22306258
H           1.04150290      0.33093218      8.73803874
C          -0.65360175      0.42110835      7.31110019
H          -1.64691930     -0.08125776      7.27363758
H          -0.95651279      1.42473875      7.68925353
C          -0.97259021      1.21311602      4.96514346
H          -0.57231435      1.31704544      3.92547653
H          -1.93838156      0.67803348      4.82221222
H          -1.24712454      2.24501414      5.27005175
C           0.29739876     -0.87074864      5.39601968
H           0.67908935     -0.89795910      4.33832211
H           1.06095734     -1.38079412      6.00712311
H          -0.58437204     -1.54580935      5.37730260
C           1.26448124      1.33250439      6.03811778
H           1.75976874      1.51827556      5.06115750
H           1.11150376      2.32903650      6.50896076
H           2.01845246      0.83791915      6.67877082
N          -0.01134567      0.51786324      5.92408299
O          -0.80742041     -0.24533809      9.54396963
H          -0.32697304     -0.62049092     10.34453236
Cl         -2.80672404      2.79177624     -2.85713149
C           2.57543896     -3.59196297      3.61417712
H           3.15103290     -3.88075414      2.72428910
H           1.51416849     -3.57380526      3.29563164
H           2.80623926     -2.54573714      3.80416061
C           2.83172719     -4.50954391      4.79021551
H           2.21463206     -4.26626292      5.67499755
C           2.50417612     -5.93414910      4.42396083
O           4.19889355     -4.58067185      5.25480523
H           4.60788927     -3.68767311      5.03962277
O           1.11599117     -6.05062515      4.47155921
H           0.81285983     -6.95992850      4.17589670
O           3.20183485     -6.87107598      4.15529810
C          -1.07029888      3.39687865     12.41858840
H          -0.31801480      4.12692301     12.73322149
H          -2.05893081      3.88191878     12.54291460
H          -1.06594838      2.59815263     13.16381996
C          -0.85335866      2.89258861     11.00819840
H          -1.62805363      2.16333389     10.70117623
C          -0.89414453      4.01519493     10.00306096
O           0.43478464      2.27280942     10.75924602
H           0.71728286      1.87986854     11.64427885
O          -2.20627679      4.43946160      9.88824890
H          -2.29012782      5.25956522      9.31411606
O          -0.01765574      4.49717155      9.33309089
