          96
 Energy =     -1.00911369 a.u.  #Cluster:    1
C           3.81796645      2.59089205     -0.37389653
C           2.71864892      1.82144488     -0.75060245
C           2.59311870      0.51508915     -0.26191865
C           3.57986725     -0.04008204      0.57993010
C           4.68461157      0.75033929      0.95428280
C           4.79105103      2.05613701      0.48339644
H           3.92486293      3.60654526     -0.74906393
H           1.96575750      2.21481396     -1.43094763
H           5.44018978      0.31795789      1.61027045
H           5.64580199      2.66675894      0.77565798
O           3.53994562     -1.27284479      1.18120253
O           1.54018590     -0.27982044     -0.71956779
C           3.06103346     -2.40337803      0.39856943
H           3.76142349     -2.60409971     -0.42102549
H           3.07927471     -3.20784282      1.14472228
H           2.04417859     -2.23761318      0.02743018
C           0.27322875     -0.19557177     -0.01537110
H          -0.14864130     -1.20361455     -0.28305121
C          -0.56159501      0.92126255     -0.67548584
H          -0.17841081      1.93044220     -0.41782229
O          -0.35657203      0.69523711     -2.10317230
H          -0.49561633      1.52793067     -2.59835161
C           0.41963970     -0.06240594      1.50653257
H           0.41843894      0.98501964      1.85864221
H           1.34438365     -0.56926809      1.85729551
O          -0.71956955     -0.63338928      2.14277394
H          -0.71813129     -1.61922818      2.02580991
C          -2.04351646      0.77461984     -0.43599736
C          -2.64031553     -0.47544156     -0.61704382
C          -2.84378486      1.87664674     -0.09343072
C          -4.02623557     -0.62230791     -0.54651620
H          -2.01969907     -1.36643208     -0.79743623
C          -4.22423735      1.73903665      0.01401925
H          -2.38840909      2.84900512      0.09836999
C          -4.83559680      0.48966661     -0.22669956
H          -4.85688126      2.58331852      0.28963286
O          -6.19985551      0.53853011     -0.12016559
O          -4.59381396     -1.85187543     -0.88323760
C          -6.95233750     -0.66163837     -0.43575589
H          -6.71800346     -1.45211592      0.28329001
H          -7.98569242     -0.31085028     -0.33171049
H          -6.73021998     -0.98863673     -1.45594119
C          -4.30599885     -2.91507773      0.07312163
H          -4.82097861     -3.77313729     -0.36869343
H          -3.22503180     -3.08880068      0.14890715
H          -4.71976844     -2.65653423      1.05162525
C           0.21178662     -2.64203873     -2.55058776
H           0.64876958     -2.59472271     -3.56904705
H           0.39403294     -1.67989711     -2.02806384
C          -1.28841728     -2.99802467     -2.57265374
H          -1.38568936     -4.10654414     -2.42904276
H          -1.81037667     -2.53828434     -1.69286688
C          -3.46158993     -2.89925005     -3.71010485
H          -4.04090108     -2.57345968     -4.58757263
H          -3.62511005     -3.98308600     -3.57924631
H          -3.89758748     -2.39306949     -2.81427911
C          -1.40963325     -3.34219417     -5.02725257
H          -2.08448578     -3.36174017     -5.89127516
H          -0.44525599     -2.88062225     -5.36655492
H          -1.14744671     -4.38903763     -4.74755695
C          -1.82396059     -1.09465768     -4.07863742
H          -2.44130066     -0.73336797     -4.91390136
H          -2.07823190     -0.51359208     -3.16779116
H          -0.76559619     -0.84029397     -4.31689548
N          -1.98846790     -2.58154551     -3.85683971
O           0.87825238     -3.68212198     -1.87976705
H           0.37618335     -3.79239834     -0.71876711
Cl         -0.58114806     -3.65456070      0.42505100
C           1.46851211     -6.42646645     -3.78068314
H           1.56407769     -7.11455383     -2.92226107
H           1.22551483     -7.01547522     -4.68292922
C           2.73160101     -5.56598754     -3.99332464
H           2.45407604     -4.60239628     -4.50030398
C           3.54184774     -5.27482106     -2.71532955
H           3.21218644     -5.87632423     -1.85136426
H           4.62435791     -5.44134107     -2.89893811
O           3.64580598     -6.30620497     -4.82109681
H           3.37652430     -6.26490601     -5.75737543
O           0.33637645     -5.58419469     -3.58457200
H           0.50985903     -4.97855864     -2.75759636
O           3.45086637     -3.88851183     -2.37686461
H           2.47889259     -3.65823811     -2.11025911
C           2.31928865     -2.17644169     -5.36561081
H           2.15466903     -3.16698553     -4.87636843
H           2.58722288     -2.34232028     -6.42474224
C           3.42057881     -1.37840482     -4.63523221
H           3.86161554     -0.60590139     -5.30628556
C           3.00331002     -0.75961554     -3.28619507
H           2.79443815     -1.53303108     -2.52145408
H           3.79298597     -0.08526083     -2.90421274
O           4.49810600     -2.27324369     -4.38322607
H           4.23308652     -2.94420285     -3.66803396
O           1.04413806     -1.51836186     -5.40481910
H           1.05308530     -0.73855005     -4.74759017
O           1.82131418      0.04249127     -3.50241376
H           1.31078279      0.11392212     -2.62507795
          96
 Energy =     -1.00263997 a.u.  #Cluster:    2
C           3.72948751      4.67060121      1.25154777
C           2.62850555      3.80615670      1.27211912
C           2.82849114      2.44213711      1.05434229
C           4.14521008      1.95653004      0.80932102
C           5.23018757      2.82980601      0.78209052
C           5.01904151      4.19436455      1.01895653
H           3.56015456      5.74404951      1.39637215
H           1.62256483      4.21830399      1.41294688
H           6.22585427      2.44041103      0.57493507
H           5.86384971      4.88073649      1.00356624
O           4.41715031      0.59787530      0.69674589
O           1.88853492      1.44561339      1.07773086
C           3.81978215     -0.04613997     -0.46789869
H           4.13199279      0.46487433     -1.38059143
H           4.22363304     -1.06183084     -0.40590330
H           2.71661313     -0.05328976     -0.36954626
C           0.47709714      1.69589760      1.30268427
H           0.12030649      0.64292197      1.12002442
C          -0.12485779      2.67969459      0.27031193
H           0.18899150      3.73535993      0.51977769
O           0.45374975      2.49631493     -1.00823568
H           0.41399393      1.51724750     -1.30612480
C           0.18554508      2.12692669      2.74510848
H          -0.85784340      2.49028709      2.84577316
H           0.88411463      2.90443576      3.10440552
O           0.38946524      1.04752166      3.66274824
H          -0.29345124      0.33151453      3.51783206
C          -1.63679467      2.57137801      0.20157452
C          -2.30735520      1.35634179      0.42466093
C          -2.37047596      3.71693073     -0.11006291
C          -3.69576026      1.29416116      0.34359978
H          -1.73289074      0.44793496      0.65067279
C          -3.76613649      3.67347597     -0.19771530
H          -1.86136474      4.66567798     -0.30302051
C          -4.44156564      2.47102495      0.02957135
H          -4.34375583      4.56322006     -0.44467628
O          -5.80631737      2.59712304     -0.07282684
O          -4.45113729      0.16146839      0.54658279
C          -6.61207753      1.39393313      0.00876625
H          -6.31433391      0.68573947     -0.77156570
H          -6.51210365      0.94614544      1.00400184
H          -7.62027445      1.78776554     -0.16088855
C          -3.75608268     -1.08030255      0.83862935
H          -4.59411149     -1.75264925      1.05764540
H          -3.20246237     -1.41908655     -0.04536172
H          -3.10392002     -0.97014746      1.71288708
C           2.82460024     -2.29877088      2.68336038
H           2.36767824     -2.54037925      1.68980600
H           3.85819134     -2.68550677      2.70826412
C           2.72095653     -0.79398770      2.92840122
H           2.93335577     -0.23402758      1.97392630
H           1.65618254     -0.51278073      3.17538692
C           3.36099862      1.20506640      4.23733122
H           3.91479043      1.61253089      5.09417279
H           3.63270216      1.79415891      3.34135018
H           2.27075090      1.38112659      4.40754206
C           5.07834720     -0.44866924      3.63152654
H           5.76593184      0.03026465      4.34416465
H           5.34550855     -1.51762030      3.55871711
H           5.26093273     -0.00217561      2.62582614
C           3.35498689     -0.99286753      5.33059865
H           4.06729840     -0.71606469      6.11871486
H           2.32896177     -0.77797326      5.68682353
H           3.38339577     -2.09832470      5.18978510
N           3.63103501     -0.26940126      4.03125722
O           2.15972274     -3.02926175      3.71491217
H           1.17295032     -2.97520298      3.58849304
Cl         -0.49261575     -1.60418275      2.17041211
C           1.95393007      7.25280488     -0.34702323
H           2.69416014      6.69009333      0.25625202
H           1.52476221      8.06356276      0.26995622
C           0.85461253      6.33491186     -0.91438930
H           0.15191219      6.91868806     -1.54970272
C           1.40763063      5.12675582     -1.69136048
H           2.12405001      4.53001498     -1.10051550
H           0.60350459      4.45005794     -2.04883722
O           0.17274976      5.83104433      0.25029690
H          -0.77145464      5.61268522      0.02214360
O           2.63659408      7.92826533     -1.40324002
H           2.75886756      7.29617737     -2.17003024
O           2.07024167      5.70178904     -2.84268743
H           2.68771611      5.04476187     -3.22333634
C          -0.60117749     -0.83399228     -1.50908399
H          -1.14759762     -0.51170646     -0.59569497
H          -1.15912967     -0.51087042     -2.40602805
C          -0.38289451     -2.36138848     -1.47831925
H          -0.46599977     -2.80345629     -2.49830721
C           0.94163957     -2.78716651     -0.81183399
H           0.82113086     -3.75578115     -0.29280532
H           1.75862580     -2.86122308     -1.55225785
O          -1.50226256     -2.94601305     -0.80328477
H          -1.43888449     -2.81012710      0.17651249
O           0.63059176     -0.10569375     -1.59259692
H           1.24674888     -0.40821392     -0.81990352
O           1.40057808     -1.81160735      0.12412625
H           0.67148989     -1.72911397      0.95643762
          96
 Energy =     -0.99826379 a.u.  #Cluster:    3
C           3.87995997      2.63198970      2.45037314
C           2.55913641      2.35424700      2.08577258
C           2.27019931      1.14918303      1.44219897
C           3.30523988      0.22920652      1.16177701
C           4.62549104      0.51566954      1.51807985
C           4.90363791      1.72045110      2.17185212
H           4.10787168      3.57354968      2.95037502
H           1.76173199      3.08139909      2.28508481
H           5.41070488     -0.20345992      1.28971947
H           5.92871866      1.95116702      2.45838202
O           3.03513650     -1.02283601      0.61938257
O           1.00541628      0.84772126      0.93792394
C           2.56598517     -0.97605329     -0.75931886
H           3.31406127     -0.49155374     -1.39100654
H           2.45305207     -2.03685009     -1.00259495
H           1.60232999     -0.43395245     -0.80784726
C          -0.05166753      0.50418529      1.87202898
H          -0.75330956     -0.03568111      1.16838634
C          -0.67367961      1.82437471      2.39066680
H          -0.25876609      2.11649013      3.38402769
O          -0.32377634      2.90500964      1.51659812
H           0.14434043      2.54442599      0.60941893
C           0.41753548     -0.44361904      2.97857839
H          -0.41461932     -0.71102232      3.66004198
H           1.25886231     -0.02585707      3.56127333
O           0.80459337     -1.69923714      2.42195629
H           1.55374475     -1.56546687      1.76985741
C          -2.18562548      1.78510603      2.41284407
C          -2.88246668      1.67882893      1.20697771
C          -2.89100158      1.94867618      3.61502547
C          -4.27601078      1.77925505      1.18661197
H          -2.33163405      1.51958677      0.27024180
C          -4.28076280      2.02418565      3.61090989
H          -2.35305102      2.01831028      4.56073473
C          -4.98917586      1.94506449      2.39485976
H          -4.84477884      2.14485148      4.53465898
O          -6.34464167      2.08834573      2.56015792
O          -4.97250066      1.83188395     -0.02092293
C          -7.19681967      1.84652451      1.41213980
H          -7.06996777      0.81855885      1.06200623
H          -8.19418640      2.01392892      1.83363892
H          -6.96454059      2.56191737      0.61486316
C          -4.70028967      0.73280705     -0.93315698
H          -5.43035730      0.89960941     -1.72881032
H          -3.66588497      0.80247935     -1.31647173
H          -4.85916760     -0.22716338     -0.43250710
C          -0.62334921      5.85746640     -1.18565391
H          -0.41922978      5.13559257     -0.37000297
H           0.33517689      6.32378933     -1.49524222
C          -1.26608016      5.17841692     -2.40879556
H          -1.25005030      5.87931343     -3.27140886
H          -0.62172903      4.30375897     -2.69487345
C          -3.02420324      3.63611309     -3.20927635
H          -4.08889595      3.35742606     -3.18505485
H          -2.76643029      3.94239538     -4.23128983
H          -2.45177450      2.68069598     -2.98471863
C          -3.64207736      5.87597081     -2.36863998
H          -4.66999856      5.62376860     -2.06451069
H          -3.29729019      6.73419010     -1.73938809
H          -3.66546266      6.22626088     -3.41096608
C          -2.89759146      4.12651149     -0.81047878
H          -3.83276759      3.53179877     -0.73531174
H          -2.06077741      3.44696233     -0.53221697
H          -2.95463419      4.91853558     -0.03569614
N          -2.70146522      4.70202462     -2.18948260
O          -1.44528806      6.93337373     -0.73849778
H          -1.83839735      6.72093660      0.17606127
Cl          0.38066818      2.57133932     -1.20071792
C          -0.86580584     -1.21496328     -1.11885752
H           0.05669874     -0.62148960     -0.90514460
H          -0.75609858     -2.23075570     -0.70165872
C          -1.20074046     -1.21341253     -2.62070213
H          -2.13857987     -1.77550451     -2.81418431
C          -1.26112027      0.20814594     -3.22521284
H          -0.25774808      0.50915564     -3.58689493
H          -1.98096376      0.25224403     -4.05858349
O          -0.11850046     -1.83552084     -3.34190151
H          -0.10615472     -2.79767028     -3.17698790
O          -1.96133870     -0.64927290     -0.39534380
H          -2.19569663      0.24358667     -0.84231750
O          -1.72505560      1.14618390     -2.25776899
H          -0.81429905      1.64496014     -1.76581268
C          -1.74539477      5.30103197      2.33883400
H          -2.26630844      4.99963947      3.26177814
H          -1.69818348      4.41850862      1.66104036
C          -0.35397625      5.90627200      2.59825578
H           0.05476833      6.34827332      1.65936999
C          -0.37108838      6.95227006      3.73260097
H          -0.16339180      6.48461905      4.70977767
H           0.35312463      7.76715855      3.55042899
O           0.54473429      4.89761883      3.05232358
H           0.48588584      4.08276375      2.42325881
O          -2.55225040      6.27300688      1.64110894
H          -2.57412908      7.10877765      2.20680112
O          -1.65309209      7.61900620      3.73914999
H          -2.21285902      7.26949519      4.46256764
          96
 Energy =     -0.99728481 a.u.  #Cluster:    4
C           3.80475121      2.72987731      1.43216010
C           2.84667280      2.28679974      0.51445500
C           2.83861504      0.94613469      0.13300640
C           3.80901720      0.04179286      0.64196489
C           4.76460411      0.49579459      1.55660530
C           4.74762523      1.83760203      1.95076210
H           3.81624721      3.77512730      1.73711919
H           2.11830648      2.97605837      0.07884468
H           5.51610861     -0.18346644      1.95890898
H           5.48965583      2.19106801      2.66898803
O           3.72591472     -1.22818885      0.12874524
O           1.99194583      0.49077501     -0.87360997
C           4.75376894     -2.19269857      0.50318631
H           5.00998974     -2.12846991      1.56077305
H           4.25449102     -3.15387100      0.27275638
H           5.62099673     -2.04086866     -0.15777060
C           0.61470655      0.17680834     -0.54067293
H           0.30942641     -0.29359863     -1.50836436
C          -0.17673752      1.47649407     -0.25817583
H           0.28231368      2.03352147      0.59674620
O           0.03217669      2.38219092     -1.34859889
H          -0.59555350      2.20565077     -2.08131620
C           0.51430381     -0.83338057      0.60962540
H          -0.54105954     -1.04550708      0.87969670
H           1.07067163     -0.51070983      1.50723734
O           1.00768281     -2.10170869      0.15990310
H           2.00222326     -2.05067200      0.03481243
C          -1.64919291      1.22103249     -0.03705314
C          -2.38793625      0.46149240     -0.95508129
C          -2.27998994      1.77057698      1.08757140
C          -3.75642885      0.27158613     -0.74975797
H          -1.92455415      0.00335662     -1.82943433
C          -3.65016536      1.59633159      1.29080751
H          -1.70487233      2.35435483      1.80883338
C          -4.40035248      0.85879976      0.36545916
H          -4.15263200      2.02848434      2.15716102
O          -5.73575215      0.67823039      0.67368850
O          -4.44732739     -0.43189091     -1.72881622
C          -6.67060909      1.05215839     -0.37766851
H          -6.41325417      0.57281560     -1.32918049
H          -7.62188482      0.68027897      0.02016283
H          -6.67524786      2.14169895     -0.47233772
C          -4.94229817     -1.72480290     -1.27578528
H          -5.52371526     -2.06281779     -2.14087332
H          -4.09452278     -2.38801130     -1.08031293
H          -5.57055473     -1.60632271     -0.38666697
C           2.03691445     -1.64524374     -3.65904643
H           1.50968394     -2.39223571     -3.02892084
H           1.33381530     -0.82923131     -3.90896403
C           3.28538134     -1.15416640     -2.91273592
H           3.02052467     -0.90947860     -1.84864111
H           4.02918264     -2.00464367     -2.83241271
C           5.06301014      0.55095484     -2.63155218
H           5.64501484      1.35917338     -3.09859287
H           4.65186123      0.92057467     -1.67831270
H           5.78698892     -0.26281340     -2.37838493
C           2.97704735      1.16359275     -3.75804613
H           3.46967135      2.09211644     -4.08345834
H           2.22474404      0.89450561     -4.52021563
H           2.43362221      1.38583601     -2.81088513
C           4.58951446     -0.36337482     -4.86946125
H           4.98093579      0.49463308     -5.42792671
H           5.42551965     -1.08420013     -4.70295787
H           3.84626709     -0.90877784     -5.49944138
N           3.97368578      0.04290003     -3.55033927
O           2.37576719     -2.21116083     -4.91303054
H           2.75500777     -3.16696766     -4.78059525
Cl          6.45070110     -2.55198330     -2.75374383
C           4.93596165     -5.32706423     -2.04964958
H           4.75917200     -6.41385449     -2.00392765
H           5.65515481     -5.02670812     -1.26768859
C           3.63519995     -4.49713352     -1.96718051
H           3.88235627     -3.41195514     -2.12690901
C           2.61746637     -4.97924754     -3.01702365
H           2.42786774     -6.06557858     -2.95723586
H           1.65725374     -4.43940456     -2.95437760
O           3.06752395     -4.50242198     -0.66246897
H           2.79871595     -5.42139198     -0.36764129
O           5.48702063     -5.08019678     -3.34039618
H           6.04468737     -4.11033522     -3.28138930
O           3.13982075     -4.69757565     -4.32450191
H           4.17999117     -4.87823744     -4.29661840
C           2.83367325     -4.88641982      2.35548977
H           3.02676395     -4.17380976      1.52539102
H           3.78867515     -5.33151082      2.68743363
C           1.80356412     -5.95822178      1.94814958
H           1.65091443     -6.69293060      2.76687160
C           0.45974333     -5.37863433      1.45500558
H           0.40271603     -5.40950620      0.34961655
H          -0.39580219     -5.93211823      1.88525961
O           2.30509983     -6.66518464      0.78344866
H           3.04465049     -7.25758224      1.03362285
O           2.36339793     -4.17734186      3.49937651
H           1.44587089     -3.81839734      3.28920365
O           0.27529400     -4.04055346      1.92626707
H           0.61817467     -3.37833700      1.23937967
          96
 Energy =     -0.99528779 a.u.  #Cluster:    5
C           3.66891540      2.95959046      1.30117611
C           2.60985074      2.13279170      1.68490358
C           2.73900059      0.74854968      1.53692596
C           3.90573992      0.19482936      0.95926193
C           4.96741379      1.03330494      0.59807980
C           4.84576272      2.41303560      0.77815143
H           3.57742529      4.03957653      1.41811087
H           1.70115195      2.56152304      2.10716687
H           5.87271941      0.59159437      0.18071753
H           5.67252545      3.06650472      0.49913546
O           4.11819072     -1.16811574      0.82763936
O           1.83760802     -0.15301975      2.08419729
C           3.18172220     -1.83908351     -0.07621713
H           3.21903692     -1.37155040     -1.06239350
H           3.56633233     -2.86235009     -0.09258194
H           2.15907389     -1.78847437      0.33538638
C           0.41156989     -0.06573452      1.80005855
H           0.13497199     -1.13309984      2.02156137
C           0.06457654      0.28920235      0.33571753
H           0.66003265      1.16660611     -0.01733694
O           0.51558483     -0.73990166     -0.53438932
H          -0.03665174     -1.56465221     -0.44643583
C          -0.21339270      0.88909513      2.82789648
H          -1.24881091      0.57672413      3.09842849
H          -0.21715241      1.94656566      2.50813526
O           0.51742091      0.82344810      4.06804579
H           1.47694808      0.62071169      3.86547227
C          -1.42730197      0.51589258      0.22300830
C          -2.31619831     -0.54710435      0.46229417
C          -1.91082149      1.78170401     -0.10640409
C          -3.68941540     -0.33444590      0.37836125
H          -1.92850495     -1.54271837      0.69834771
C          -3.28946834      2.01041855     -0.18118696
H          -1.22684093      2.60291268     -0.31271496
C          -4.18744412      0.96619645      0.06391082
H          -3.68174798      2.99537516     -0.42997512
O          -5.50038907      1.35379830     -0.04804555
O          -4.64239710     -1.31445752      0.54633634
C          -6.53145334      0.38611510      0.27801861
H          -6.41154575      0.03767493      1.30912466
H          -7.44311879      0.97957985      0.15002386
H          -6.48860771     -0.45409224     -0.42475017
C          -4.22615298     -2.52747224      1.23257161
H          -5.15733025     -3.10395832      1.24814770
H          -3.44732417     -3.04485240      0.66559523
H          -3.89748430     -2.28165046      2.25662315
C           5.83704224     -2.30183004      3.42767323
H           6.60963867     -3.07920152      3.29017849
H           5.27177199     -2.17972881      2.46898203
C           4.93936319     -2.63848709      4.62752677
H           4.77048862     -3.75160475      4.67836425
H           5.44721800     -2.35004519      5.57238401
C           2.78892068     -2.31375590      5.81018943
H           1.79380196     -1.79810361      5.83886786
H           2.58647285     -3.40662479      5.85706247
H           3.31970965     -2.02657517      6.72953111
C           2.83631491     -2.46676534      3.34928361
H           1.77265548     -2.13461036      3.31314049
H           3.28846391     -2.07999022      2.40588126
H           2.83804271     -3.57808184      3.29712410
C           3.72612127     -0.46127303      4.49854841
H           2.75892639      0.03004259      4.26348433
H           4.11110604     -0.04455290      5.44191723
H           4.44095478     -0.15954884      3.69763555
N           3.56856225     -1.96239949      4.56298064
O           6.44066137     -1.01881601      3.60174694
H           7.20292792     -1.06126003      4.21376953
Cl          0.00133560     -3.45576010      1.25630702
C          -2.27272086     -1.42519574      4.63131222
H          -1.92440535     -0.81622088      3.76987314
H          -2.87684763     -0.78846037      5.30435808
C          -1.10221181     -2.09161748      5.37693050
H          -1.46152477     -2.61424615      6.29198304
C          -0.27326412     -3.03490167      4.48081202
H           0.36892046     -2.43722036      3.79417885
H           0.37377988     -3.68389380      5.10819478
O          -0.17529582     -1.11852945      5.88433589
H          -0.04827649     -0.36679405      5.23142702
O          -3.18330862     -2.41037925      4.15028203
H          -2.64827544     -3.24261566      3.87499120
O          -1.10789087     -3.88678094      3.71770727
H          -0.79552832     -3.76581614      2.55993826
C           2.02342713     -5.66342277      4.87073332
H           2.08505250     -6.46195784      5.62675192
H           1.62767334     -4.73917648      5.34812080
C           1.16761085     -6.07304590      3.65346526
H           1.15753298     -5.25784247      2.89025748
C           1.62284689     -7.40131689      3.01523505
H           0.96913538     -8.23370465      3.33093807
H           1.63767645     -7.33704382      1.91085714
O          -0.14737495     -6.31374771      4.13509528
H          -0.71863247     -5.45378428      4.02024544
O           3.35320411     -5.30780042      4.44478714
H           3.69852508     -6.07394559      3.88383683
O           3.00083848     -7.67943883      3.35573187
H           3.03669877     -8.25325292      4.14827139
          96
 Energy =     -0.99358112 a.u.  #Cluster:    6
C           3.68247235      3.23034881     -1.26530514
C           2.40636664      2.75196674     -0.95226424
C           2.27877176      1.48450870     -0.38234344
C           3.42944341      0.70773188     -0.11233913
C           4.70092110      1.18492187     -0.43453748
C           4.81843636      2.45589714     -1.00882897
H           3.78959937      4.21648153     -1.71761627
H           1.50477193      3.34773360     -1.14975101
H           5.57706310      0.57272622     -0.23154344
H           5.80609384      2.84037115     -1.26193464
O           3.34341354     -0.50526694      0.57277166
O           1.04081269      0.89450130     -0.15455580
C           2.62424898     -1.54499626     -0.16299340
H           3.14183989     -1.75031742     -1.10093926
H           2.66432357     -2.39789903      0.52267684
H           1.58304458     -1.22557844     -0.32305757
C           0.27600953      1.30932068      1.00839544
H          -0.25101802      0.33109209      1.23781063
C          -0.71908136      2.42402004      0.56653911
H          -0.54138046      3.38711398      1.09747909
O          -0.48396596      2.78104766     -0.79369408
H          -0.52323052      1.97288335     -1.37087670
C           1.13090531      1.70477448      2.21084977
H           0.50609410      2.03588236      3.06498988
H           1.88572185      2.47636908      1.97351412
O           1.81283870      0.55059239      2.72698694
H           2.24687967      0.04094878      1.96571798
C          -2.13743379      1.92332830      0.74014265
C          -2.50563268      0.71945343      0.13163903
C          -3.06813129      2.62185085      1.52047828
C          -3.77151068      0.17177438      0.35167859
H          -1.79993548      0.18186260     -0.51427018
C          -4.34477501      2.09949632      1.72413402
H          -2.80248165      3.57938042      1.96881285
C          -4.69875330      0.85698196      1.16514546
H          -5.08397004      2.63485646      2.31898736
O          -5.92735627      0.40652810      1.59259324
O          -4.07181199     -1.01867783     -0.31809285
C          -6.70856839     -0.39554037      0.66717001
H          -6.15153432     -1.28067884      0.34288645
H          -7.57795726     -0.66110463      1.27813731
H          -6.99288168      0.22118980     -0.19058255
C          -3.70881148     -2.21807780      0.42857326
H          -3.80064272     -3.00985147     -0.33180929
H          -2.66828575     -2.16415982      0.77456764
H          -4.40589781     -2.36387957      1.25457357
C           2.37948452      0.12584679      6.57553274
H           1.82720359     -0.70488822      7.05096551
H           3.14035216      0.51217054      7.28330035
C           3.03976042     -0.27294050      5.23884734
H           2.67294561      0.46542927      4.45403078
H           4.13773606     -0.12895692      5.28728114
C           3.46086449     -1.92363516      3.44756194
H           3.20368218     -2.90836837      3.01433034
H           3.15032727     -1.17465618      2.67440172
H           4.55232003     -1.85109663      3.55623047
C           1.25897874     -1.87495775      4.53275191
H           1.01721295     -2.86212037      4.09728776
H           0.66061866     -1.73549304      5.45376929
H           0.86394637     -1.11412726      3.79654917
C           3.22115614     -2.69984451      5.77115075
H           3.04896094     -3.73271197      5.41727761
H           4.29871483     -2.58632509      5.97343173
H           2.68516410     -2.59268295      6.73154689
N           2.73427765     -1.68617392      4.75603729
O           1.52346864      1.23064536      6.36964470
H           0.65057441      0.92870432      5.91619178
Cl          0.15463473     -2.57844766      1.58690150
C          -1.91562962      0.40961736      5.56891882
H          -2.27554148     -0.31359131      6.32404219
H          -1.88056630      1.41906929      6.01170557
C          -2.77986707      0.36817256      4.29423263
H          -2.69204015      1.31751587      3.71837740
C          -2.41888704     -0.83334297      3.39732783
H          -2.38021200     -1.78072629      3.96131785
H          -3.12281385     -0.93638122      2.55637841
O          -4.12900460      0.22488824      4.76662129
H          -4.75495098      0.27067023      4.00682318
O          -0.55923393      0.02888772      5.28294712
H          -0.41814767     -0.06037177      4.23027847
O          -1.12592668     -0.51350869      2.88841176
H          -0.64886359     -1.41961228      2.34622944
C          -2.50662877     -3.65959906     -3.05043863
H          -3.47211784     -3.45512944     -2.55026041
H          -2.51138227     -4.68941129     -3.44879929
C          -1.33404207     -3.43743514     -2.06884620
H          -0.44334449     -4.03730458     -2.36093124
C          -0.92970971     -1.96014529     -1.89524890
H          -0.66322338     -1.74239685     -0.84206368
H          -0.08165553     -1.69241807     -2.55507256
O          -1.84178753     -3.97490711     -0.83456072
H          -1.17394698     -3.87805518     -0.10851375
O          -2.38034079     -2.84094280     -4.21065077
H          -2.34651801     -1.87900144     -3.91951516
O          -1.95328282     -1.04824241     -2.32271340
H          -2.76143499     -1.12436582     -1.73074174
          96
 Energy =     -0.99287656 a.u.  #Cluster:    7
C           3.04210820      1.74847154      0.41938424
C           2.20179794      0.73824536     -0.05882625
C           2.31328476     -0.54420706      0.48326162
C           3.24248008     -0.80842418      1.51415646
C           4.07787124      0.20623969      1.98941422
C           3.96855178      1.48544805      1.43482025
H           3.00325187      2.75100338     -0.02251298
H           1.47226285      0.93330226     -0.85130770
H           4.79024113     -0.01123727      2.78367936
H           4.62018907      2.28527937      1.78922680
O           3.27455367     -2.04234646      2.15584251
O           1.62997500     -1.63131548     -0.04531343
C           3.75424717     -3.13866495      1.32419413
H           4.83777854     -3.04453227      1.21461649
H           3.48223897     -4.01938989      1.91627063
H           3.24876047     -3.14294796      0.34305726
C           0.20648999     -1.77139811      0.22826512
H           0.09148169     -2.86949126      0.03442425
C          -0.55940454     -0.95991124     -0.84395006
H           0.02028211     -0.04145002     -1.12760985
O          -0.66772752     -1.79346804     -2.00402382
H           0.24160355     -1.74490212     -2.55353208
C          -0.14456577     -1.43611860      1.68193235
H          -1.23451733     -1.52328126      1.86822764
H           0.19493644     -0.42672162      1.97594723
O           0.41751552     -2.41096451      2.55774273
H           1.41817310     -2.37538212      2.50425343
C          -1.98154679     -0.61916672     -0.46496202
C          -2.94905024     -1.63446087     -0.42451862
C          -2.34458218      0.70581739     -0.21614236
C          -4.28747802     -1.31392438     -0.18224441
H          -2.66533198     -2.67651430     -0.58931884
C          -3.67761828      1.03429658      0.06376113
H          -1.59519115      1.49899365     -0.24507037
C          -4.65479390      0.03851448      0.07067732
H          -3.93671990      2.07034389      0.26883944
O          -6.00372297      0.24767565      0.28806023
O          -5.12806242     -2.39759201     -0.29360366
C          -6.42740908      1.59369774      0.61661452
H          -6.23283476      2.26750862     -0.22260946
H          -7.50645925      1.45500409      0.76607285
H          -5.94439896      1.93392435      1.53731114
C          -6.47547882     -2.27222877      0.22849374
H          -6.84911087     -3.29870475      0.13651663
H          -6.45332662     -1.94141313      1.27094442
H          -7.04766738     -1.57309282     -0.39195118
C          -3.91154835      0.06949208     -3.36908566
H          -4.42055623     -0.76792525     -2.84797842
H          -3.81892074      0.91750329     -2.65977638
C          -2.53659165     -0.29662432     -3.91965642
H          -2.15552365      0.51304301     -4.58854776
H          -1.78997002     -0.34039272     -3.06381960
C          -1.04755921     -1.85950912     -5.11393556
H          -0.96230925     -2.71651675     -5.79540181
H          -0.62484851     -0.96249906     -5.60739799
H          -0.37151558     -2.05282570     -4.23753558
C          -3.37709736     -1.61702309     -5.86555845
H          -3.42557851     -2.60442116     -6.34983049
H          -4.41216359     -1.31609324     -5.58594472
H          -3.03180862     -0.88336727     -6.61435266
C          -2.87123256     -2.75700564     -3.72925289
H          -2.74615780     -3.74275306     -4.20106984
H          -2.22933917     -2.74034596     -2.80598518
H          -3.91691262     -2.66047711     -3.39228842
N          -2.47117590     -1.63131712     -4.65523888
O          -4.82709017      0.40632996     -4.41834048
H          -4.64027995      1.30265795     -4.76871229
Cl          0.30104061      1.09516750     -3.84567387
C           4.53994548      2.53948585     -2.47645103
H           5.27006975      2.73604862     -3.28360110
H           4.87507655      1.67115359     -1.87950204
C           3.13022263      2.32048194     -3.06697326
H           2.55327896      1.57138631     -2.47436173
C           2.30034848      3.60786124     -3.20955133
H           1.53969360      3.51617904     -4.00664809
H           1.80290354      3.88447164     -2.26109525
O           3.39895706      1.75500082     -4.36370060
H           2.55100791      1.55283447     -4.82900593
O           4.54778607      3.61743708     -1.53797666
H           4.26656967      4.45603424     -2.00668321
O           3.13208046      4.75349797     -3.48422532
H           3.59312585      4.62219042     -4.34335490
C           2.62164860     -2.98104668     -2.30056982
H           1.57321248     -3.34050951     -2.25323689
H           3.04178770     -2.96874602     -1.26895013
C           2.66619399     -1.58587947     -2.95775822
H           2.84404615     -0.79623797     -2.19546249
C           3.65052366     -1.47509239     -4.13499625
H           3.74131168     -0.43225322     -4.50003217
H           4.64864313     -1.89119955     -3.90989306
O           1.36528264     -1.39483166     -3.53368629
H           1.10429889     -0.27621221     -3.68471231
O           3.40789198     -3.96431146     -2.97408725
H           3.29978264     -3.86562169     -3.96064575
O           3.15446611     -2.30081439     -5.20903564
H           2.17967830     -2.13031588     -5.28758025
          96
 Energy =     -0.99181774 a.u.  #Cluster:    8
C           3.05829792      3.01153098      0.33808176
C           1.85919801      2.38239950     -0.00946056
C           1.75343135      0.99788231      0.13867133
C           2.85839262      0.23985701      0.58859493
C           4.05536309      0.87539473      0.93096500
C           4.14155370      2.26672405      0.81705736
H           3.14948444      4.09047712      0.22865610
H           1.00837721      2.94178383     -0.41177656
H           4.89663496      0.28028681      1.28382171
H           5.06727423      2.77046512      1.09260691
O           2.76834572     -1.13497347      0.78603737
O           0.61672419      0.30271751     -0.25748512
C           2.68606496     -1.89914919     -0.45519883
H           3.62677221     -1.80092234     -1.00092342
H           2.53218371     -2.91868613     -0.08877267
H           1.83311417     -1.54903712     -1.06275595
C          -0.56140965      0.37026777      0.58281014
H          -1.19056893     -0.37165005      0.02505467
C          -1.18568815      1.78913612      0.58262123
H          -0.59396277      2.47971625      1.23076285
O          -1.12241681      2.36904507     -0.69779092
H          -1.36605990      1.59379643     -1.51236707
C          -0.26913630     -0.09844127      2.01776946
H          -1.19956884     -0.14727352      2.61783657
H           0.46531389      0.55508538      2.52267991
O           0.20563406     -1.43966239      2.02197636
H           1.10341820     -1.46836627      1.56951879
C          -2.64463179      1.74849963      1.02018953
C          -3.55404705      0.94274888      0.31908562
C          -3.09389588      2.57705754      2.05163521
C          -4.92008927      1.04092766      0.57738390
H          -3.18190601      0.25855815     -0.45220569
C          -4.45609602      2.62686475      2.37171086
H          -2.39089243      3.18483204      2.61902648
C          -5.37598473      1.89224484      1.62031695
H          -4.81532088      3.23839853      3.19747517
O          -6.70456349      2.16249149      1.91004833
O          -5.89950323      0.37966399     -0.13112027
C          -7.61957808      1.03634051      1.85051394
H          -7.23816834      0.20293650      2.44598657
H          -8.53202408      1.45518622      2.28711475
H          -7.76386467      0.73592670      0.80456214
C          -5.46331042     -0.42626023     -1.26068383
H          -6.41652862     -0.80044866     -1.64993294
H          -4.94802766      0.20890645     -2.00482835
H          -4.81853690     -1.24359432     -0.92245933
C          -4.35711840      2.50809914     -3.19224994
H          -3.67192690      2.32519204     -4.04765553
H          -4.72319336      1.52225958     -2.81853720
C          -3.71906943      3.28495384     -2.03895793
H          -4.52035034      3.66294007     -1.35264152
H          -3.08120071      2.58826447     -1.41671443
C          -2.21671661      5.06258365     -1.23877792
H          -1.49479578      5.85155637     -1.49169248
H          -2.98407882      5.49990216     -0.57560902
H          -1.66598831      4.26914632     -0.66059361
C          -3.66963076      5.48760077     -3.18715342
H          -3.05408541      6.29349597     -3.61002344
H          -4.26042871      5.01856985     -4.01004998
H          -4.40509130      5.94034392     -2.49313691
C          -1.72789835      3.95424445     -3.37761877
H          -1.12081736      4.77736055     -3.77575430
H          -1.05522937      3.25672359     -2.81962661
H          -2.12946512      3.35888535     -4.22305654
N          -2.83694577      4.44764111     -2.47511234
O          -5.43923449      3.23401338     -3.78043589
H          -6.11679572      3.47167234     -3.09120333
Cl         -1.97040190      0.66581766     -2.70868322
C          -0.14950872     -0.42128084     -4.85602973
H           0.11248816      0.62582073     -4.61241087
H          -1.22784528     -0.48332578     -5.09649639
C           0.23510815     -1.35051876     -3.68565041
H          -0.67169035     -1.69904182     -3.14247284
C           1.13942127     -2.52702957     -4.09379658
H           1.36064746     -3.18406755     -3.23552595
H           0.71895607     -3.10832329     -4.93450568
O           1.07762706     -0.62756499     -2.76358403
H           0.54657157      0.01328950     -2.21804656
O           0.48000267     -0.76319597     -6.09667600
H           1.43463881     -1.00161378     -5.94086670
O           2.38402157     -2.01652291     -4.61190738
H           2.73993533     -1.35629473     -3.96133956
C          -7.26840058      4.15886935     -0.40995002
H          -8.29041696      4.41795995     -0.74008965
H          -7.18646068      3.06301654     -0.23870675
C          -6.85923503      4.95602577      0.84348387
H          -7.08957567      4.37052905      1.76758224
C          -5.38780537      5.40347806      0.82070471
H          -5.10154548      5.90447957      1.76213915
H          -4.70455112      4.55930011      0.60247522
O          -7.56654383      6.21244059      0.88479375
H          -8.51507980      6.07484666      1.07292067
O          -6.37194856      4.39340682     -1.50340145
H          -6.14686771      5.36706966     -1.55738243
O          -5.17802134      6.32220181     -0.27491476
H          -5.74880503      7.12155530     -0.12136564
          96
 Energy =     -0.98951827 a.u.  #Cluster:    9
C           2.59358904      3.03148948      4.79691689
C           2.04021182      3.08545409      3.51639508
C           2.72786893      2.49498551      2.45032973
C           3.95430787      1.83566608      2.66884501
C           4.50652048      1.79316385      3.95496815
C           3.82311078      2.39608602      5.01293205
H           2.05916802      3.48305559      5.63409265
H           1.07635919      3.57359584      3.34540406
H           5.45787896      1.28666370      4.11143767
H           4.24734437      2.36503805      6.01693154
O           4.68933897      1.30434285      1.61118278
O           2.27449369      2.64281081      1.14272344
C           4.31894785     -0.06575829      1.28974449
H           3.31336664     -0.07440492      0.82345168
H           5.11004327     -0.38509909      0.61182340
H           4.29920930     -0.68022792      2.20228989
C           1.09081392      1.87672657      0.70097947
H           1.46703942      1.53116368     -0.30522538
C          -0.01862353      2.92670499      0.48182141
H           0.12627788      3.80214295      1.17379591
O           0.25154781      3.50290996     -0.82573669
H          -0.33002221      3.09876638     -1.50812889
C           0.75691872      0.66555721      1.57115449
H          -0.33335402      0.47043969      1.61303204
H           1.12428559      0.76043604      2.62079744
O           1.40893115     -0.48405162      1.05407627
H           1.09945863     -0.68162963     -0.05186812
C          -1.42644827      2.40523162      0.53776843
C          -1.79691720      1.29754983     -0.24486181
C          -2.36224780      3.03183867      1.36254494
C          -3.08984102      0.79121348     -0.16826601
H          -1.06134590      0.81931016     -0.89951350
C          -3.67327791      2.54892186      1.42658131
H          -2.07548787      3.89803032      1.96436436
C          -4.04904548      1.42961601      0.67302348
H          -4.41445674      3.02567320      2.06677226
O          -5.37054490      1.09272886      0.83391145
O          -3.52848010     -0.30601145     -0.88157066
C          -5.82762531     -0.15866636      0.25866729
H          -5.24556226     -0.99406090      0.66122135
H          -6.87100466     -0.19024361      0.58981541
H          -5.74752512     -0.11743024     -0.83389503
C          -2.50030672     -1.19946389     -1.39729944
H          -3.10054914     -2.02314009     -1.79589233
H          -1.92187298     -0.70485248     -2.18533739
H          -1.83729786     -1.53356986     -0.59131916
C           2.82742836      4.25514941     -2.39877423
H           2.24222134      4.77175080     -3.18654620
H           2.12556963      3.76223411     -1.69168256
C           3.83187284      3.29317572     -3.05511044
H           3.38550984      2.83675821     -3.96619186
H           4.70470470      3.90933293     -3.38641518
C           5.54281793      1.53729179     -2.77636050
H           5.90082345      0.67888377     -2.17743710
H           5.31180261      1.15663906     -3.78587667
H           6.37962375      2.25198921     -2.86011720
C           3.25334384      1.13347209     -1.97165998
H           3.56231051      0.30358535     -1.30613106
H           2.33044073      1.56245235     -1.50394745
H           2.94257885      0.67850520     -2.92899694
C           4.72853092      2.73449086     -0.78687357
H           5.47260000      2.10292963     -0.26573883
H           5.12394225      3.76371008     -0.86344532
H           3.86329176      2.76477342     -0.07614407
N           4.32910088      2.17978011     -2.13133714
O           3.59636535      5.26633175     -1.74793851
H           3.30536967      5.34988261     -0.77992416
Cl          0.92984708     -0.68676429     -1.65337258
C           1.50285727      7.31883892      2.65497755
H           0.99607597      7.70568958      3.55904138
H           2.03304457      8.13993042      2.14463796
C           0.53151653      6.56973613      1.72120726
H          -0.38420904      7.16437789      1.49728962
C           1.21267796      6.13287553      0.41045471
H           0.53102434      5.51710390     -0.21556411
H           1.57610583      6.99840870     -0.17165693
O           0.02944020      5.41218777      2.39823745
H           0.72241105      5.09178902      3.05891201
O           2.44718929      6.37636378      3.17424555
H           2.90761450      5.92994478      2.40074656
O           2.41354844      5.37586852      0.68591542
H           2.17381212      4.40437866      0.86715636
C           1.82699958     -2.83742437      3.47999704
H           1.40039235     -3.47728182      4.27538256
H           2.31836330     -3.47293416      2.72461355
C           2.79448594     -1.77986554      4.05478655
H           3.23192385     -1.15338808      3.23687159
C           2.13394717     -0.89039785      5.12610574
H           1.77155300     -1.49111697      5.97934000
H           2.82726194     -0.11046850      5.48917808
O           3.86727078     -2.43191240      4.75926562
H           4.35192670     -3.03364815      4.16482130
O           0.69730370     -2.18738759      2.90740108
H           0.97723702     -1.67554687      2.04080775
O           1.04147403     -0.16737948      4.56025399
H           0.46959369     -0.81410824      4.02167618
          96
 Energy =     -0.98878513 a.u.  #Cluster:   10
C           4.49155866      2.37312465      0.96626819
C           3.27812487      2.25232000      0.28219214
C           3.06675120      1.14675470     -0.54415275
C           4.07265155      0.16349914     -0.67669778
C           5.29007011      0.29515168     -0.00464379
C           5.48952091      1.40465296      0.82405258
H           4.63966013      3.23852628      1.62588638
H           2.49660785      3.00650558      0.41205933
H           6.05260920     -0.47458005     -0.11983887
H           6.42973113      1.50962747      1.36479603
O           3.83856317     -1.01793453     -1.37978560
O           1.93919259      1.01373081     -1.34293642
C           3.74750315     -0.84460549     -2.82357786
H           4.68351957     -0.43408437     -3.20472269
H           3.59646121     -1.88172430     -3.17407774
H           2.89020561     -0.20691920     -3.06535046
C           0.66197017      0.71474472     -0.70659990
H           0.07508878      0.46597621     -1.62815978
C           0.09904977      1.98571771     -0.01958572
H           0.85045165      2.40241091      0.69793218
O          -0.03373816      2.96873193     -1.02418265
H          -0.93929719      2.70676097     -1.87004755
C           0.76871516     -0.47777920      0.24909313
H          -0.23027330     -0.79144095      0.61978968
H           1.43223052     -0.27128951      1.10884019
O           1.25707464     -1.63978350     -0.43169917
H           2.17921792     -1.45871805     -0.80396186
C          -1.22348942      1.72647137      0.66630311
C          -2.30959439      1.23537083     -0.07382846
C          -1.37589831      2.01494436      2.02380039
C          -3.55724884      1.08870538      0.52638152
H          -2.17785298      0.98116642     -1.12681702
C          -2.61123292      1.82697082      2.65121060
H          -0.54072773      2.40363002      2.61140830
C          -3.71142288      1.37189768      1.91348068
H          -2.73821055      2.04051172      3.71241797
O          -4.84814318      1.22861692      2.67439219
O          -4.69032268      0.66950282     -0.14450819
C          -6.08806348      0.92416187      1.98726684
H          -6.00992615     -0.04785568      1.48614530
H          -6.80427169      0.89750165      2.81523822
H          -6.32314631      1.71562179      1.26885891
C          -4.61972085      0.65788321     -1.59710996
H          -5.66985840      0.51507132     -1.87155720
H          -4.23212159      1.61002716     -1.98254419
H          -4.00041271     -0.18201080     -1.92688212
C           0.67794184      5.99179866     -1.33965159
H           1.72968473      5.79453569     -1.05775346
H           0.47398084      7.07935036     -1.26429281
C           0.31751760      5.45126540     -2.73537405
H          -0.51334501      4.69331856     -2.59216494
H          -0.12985932      6.24522212     -3.36838604
C           0.91121952      4.13497954     -4.73830431
H           1.70883658      3.74683584     -5.39015508
H           0.25665172      3.26443554     -4.47673100
H           0.28253341      4.82507591     -5.32297367
C           2.14906915      3.73684055     -2.65303577
H           2.81741298      3.09368623     -3.24066323
H           2.72005000      4.16658209     -1.81584810
H           1.38915600      3.03680694     -2.15666691
C           2.47720417      5.83736241     -3.89456494
H           3.33371695      5.38749466     -4.42646787
H           2.03047869      6.59517303     -4.55958842
H           2.88383083      6.36477875     -3.01306936
N           1.46496117      4.78498081     -3.48833898
O          -0.17631373      5.40951074     -0.37191533
H          -0.23447816      4.32892526     -0.51002360
Cl         -1.71754499      2.56433190     -3.14217256
C           2.35764918      3.84163383      3.47201286
H           1.93589154      2.94009573      2.99150703
H           3.10487940      3.53403796      4.22378847
C           1.25783228      4.73310129      4.08298469
H           1.69952668      5.64228595      4.54138977
C           0.16689022      5.11332420      3.06223290
H          -0.33151487      4.21771906      2.64292799
H          -0.59261694      5.77751979      3.51115584
O           0.57258204      3.93729893      5.06557778
H           0.81768499      4.21456746      5.96708087
O           3.10259683      4.57831601      2.49696491
H           2.46480785      5.18895996      2.00262753
O           0.84414397      5.84981150      2.03043344
H           0.37462517      5.69579367      1.13099650
C          -0.28241780     -5.04626607     -3.19426490
H          -1.06525280     -4.44843817     -3.70527574
H          -0.74505726     -5.91544730     -2.69360508
C           0.49074698     -4.15201627     -2.20282220
H           0.28460415     -4.42841276     -1.14740048
C           2.00353505     -4.07957129     -2.48627443
H           2.54485322     -3.52262026     -1.70009544
H           2.46841700     -5.06941095     -2.64361434
O          -0.02074246     -2.82806164     -2.45441907
H           0.27821598     -2.20923979     -1.70880430
O           0.55476791     -5.64907001     -4.18362463
H           1.14180662     -4.95733850     -4.59357330
O           2.18971067     -3.38514582     -3.73788319
H           1.48893479     -2.66803393     -3.78917715
          96
 Energy =     -0.98711332 a.u.  #Cluster:   11
C           2.87296944      3.78221145      0.33890339
C           2.04189580      2.75776119     -0.11068511
C           2.34502944      1.42248544      0.18538755
C           3.50233302      1.10882853      0.93928462
C           4.34256615      2.15566820      1.37818272
C           4.02265709      3.47632862      1.07969228
H           2.63354870      4.81790936      0.11112986
H           1.15286792      2.97961865     -0.70847393
H           5.24388494      1.90179467      1.93433108
H           4.67306653      4.27952535      1.42560231
O           3.96198066     -0.11702651      1.31686336
O           1.57161666      0.39402237     -0.34100985
C           3.15412495     -1.29117867      1.01777729
H           2.94988606     -1.35108609     -0.05555104
H           3.80725561     -2.09960898      1.36020144
H           2.21537599     -1.24501514      1.59777135
C           0.21655890      0.23088544      0.16661430
H           0.05731523     -0.86145382     -0.05228739
C          -0.71404587      1.10102311     -0.72097708
H          -0.21260908      2.07305717     -0.96708105
O          -0.94843920      0.41139948     -1.96110147
H          -0.08455383      0.12915695     -2.34522979
C           0.07779100      0.50444390      1.66683372
H          -0.97675384      0.74422631      1.93204766
H           0.72484634      1.34616201      1.99796243
O           0.48185019     -0.61214148      2.43058429
H          -0.22209834     -1.53041860      2.16971985
C          -2.08663699      1.31859318     -0.12676902
C          -2.96261753      0.23283322      0.02054909
C          -2.47327663      2.60039580      0.28041170
C          -4.22940479      0.43422391      0.56873641
H          -2.62828140     -0.76291526     -0.29873038
C          -3.74073784      2.81118185      0.83057003
H          -1.80033638      3.44777598      0.15387919
C          -4.62556232      1.73633780      0.97193989
H          -4.06632227      3.80752429      1.12363952
O          -5.83765810      2.10691835      1.53603851
O          -5.16366657     -0.56460809      0.78110901
C          -6.89168546      1.11078201      1.59233777
H          -6.60039617      0.30110607      2.28071875
H          -7.73781638      1.68933531      1.98048697
H          -7.09448909      0.72060027      0.58806410
C          -4.85147359     -1.88600144      0.25540015
H          -5.78553511     -2.42805130      0.44204181
H          -4.62835275     -1.83373560     -0.81415407
H          -4.01010062     -2.31571725      0.82627829
C          -4.42621453      1.88112118      4.50259883
H          -3.93857769      1.45497175      3.59358100
H          -5.07639937      1.09321186      4.94272094
C          -3.42570351      2.39025021      5.54315745
H          -3.97908620      2.96002872      6.32476033
H          -2.94214375      1.50857126      6.03418868
C          -1.36619792      3.65013866      6.08481626
H          -0.69908248      4.48141307      5.79012959
H          -1.89054608      3.94951652      7.00458604
H          -0.69048861      2.79231274      6.33015042
C          -2.92168695      4.55647710      4.40787871
H          -2.18632301      5.13072068      3.82348053
H          -3.78694027      4.31749738      3.73975750
H          -3.32947978      5.20174301      5.20156686
C          -1.55510203      2.56657062      3.89166650
H          -0.66117399      3.13421355      3.56397048
H          -1.18143563      1.56402550      4.24985435
H          -2.19174542      2.34982217      3.01177784
N          -2.32246877      3.28616384      4.96751854
O          -5.25740682      2.99493171      4.13128229
H          -5.64649699      2.80607691      3.22787087
Cl         -1.42773416     -2.45644495      1.71254630
C           2.41938348      2.74204446      4.32664004
H           3.22802581      2.17052693      3.84077405
H           2.81873286      3.71146887      4.68523691
C           1.73558226      1.98402236      5.47994531
H           0.72068239      2.41823574      5.67444620
C           1.59440663      0.46173370      5.28903030
H           2.28905582      0.04498337      4.53980910
H           1.72992474     -0.06056172      6.25690960
O           2.43159893      2.28581114      6.69668047
H           3.31548641      1.86835805      6.71474755
O           1.42155391      3.10839174      3.36270805
H           1.41986381      2.43951672      2.61836680
O           0.24395058      0.22438428      4.90142108
H           0.23926302     -0.22380415      3.95337457
C          -2.87006599     -1.00957628      4.20508552
H          -1.96563092     -1.63701791      4.35411600
H          -3.13685731     -0.51209169      5.15021178
C          -4.02885979     -1.82544597      3.62081682
H          -3.84132734     -2.05296190      2.54135281
C          -4.27478853     -3.11789809      4.41622757
H          -4.59081341     -2.91605049      5.45663800
H          -5.03318375     -3.75140908      3.92354299
O          -5.24712168     -1.05525905      3.71685381
H          -5.44563739     -0.68890218      2.81089567
O          -2.55285188      0.07403834      3.31429077
H          -2.20238794     -0.29110588      2.45118528
O          -3.06011477     -3.85489754      4.56325382
H          -2.58924650     -3.93766496      3.69455603
          96
 Energy =     -0.98583941 a.u.  #Cluster:   12
C           4.65959207      3.91003708     -0.18216246
C           3.80070438      2.82707920     -0.38963054
C           3.72355647      1.82210092      0.57831633
C           4.52124203      1.88955554      1.74417748
C           5.37486960      2.98106959      1.94557696
C           5.43170164      3.99145333      0.98196952
H           4.72708366      4.69227966     -0.93793074
H           3.21054600      2.75492480     -1.30729056
H           5.98076543      3.02343314      2.84948585
H           6.09266496      4.84393552      1.13646082
O           4.44054110      0.96926858      2.77880939
O           2.93493375      0.70358556      0.34144007
C           4.75104283     -0.40777108      2.39795244
H           5.76746326     -0.45680922      2.00633884
H           4.65015160     -0.93409203      3.35670038
H           4.01046692     -0.77271661      1.67280380
C           1.59426698      0.66453955      0.91829045
H           1.57889653     -0.38864872      1.32181593
C           0.63827765      0.77853712     -0.29198710
H           0.92158163      1.63735355     -0.95704293
O           0.91611438     -0.43517575     -1.00484915
H           0.41605229     -0.45704949     -1.87308355
C           1.31415528      1.69117125      2.01863299
H           0.23258297      1.91498276      2.11475934
H           1.85957691      2.64187564      1.87208501
O           1.65166764      1.14771267      3.29674652
H           2.62179002      0.85419723      3.29546924
C          -0.81208312      0.84016957      0.12338035
C          -1.40355493     -0.26527225      0.74958243
C          -1.54640136      2.01397462     -0.08378899
C          -2.72281439     -0.18236472      1.19757475
H          -0.82118295     -1.18546940      0.89106779
C          -2.87239402      2.09860760      0.34167295
H          -1.09238954      2.87218403     -0.57803250
C          -3.47190640      1.00610059      0.98609725
H          -3.46160050      3.00039192      0.18037723
O          -4.75923030      1.26259480      1.39405571
O          -3.35278521     -1.17705142      1.92373341
C          -5.58796258      0.13349500      1.77404008
H          -5.20335641     -0.31246435      2.69953123
H          -6.56261633      0.61081845      1.92517868
H          -5.61930427     -0.60486948      0.96845967
C          -2.92313928     -2.54092892      1.66327021
H          -3.54128403     -3.10945107      2.36529455
H          -3.13783519     -2.80546827      0.62669990
H          -1.84829974     -2.66351396      1.89617474
C          -2.49883121     -1.68030555      6.27040391
H          -2.90444911     -1.92855914      5.26807666
H          -1.78123884     -2.47174604      6.57156856
C          -1.90448411     -0.25758519      6.32853238
H          -2.68074846      0.45551026      5.96051539
H          -1.71818558      0.02001643      7.38924674
C          -0.21890596      1.37949924      5.59363480
H           0.68380508      1.56003317      4.94834956
H          -1.01043365      2.04218300      5.21139642
H           0.04270135      1.68549502      6.61561413
C          -0.85088322     -0.44301863      4.07741324
H           0.04524202     -0.16053403      3.46018300
H          -0.95931470     -1.54348063      3.93387345
H          -1.73994110      0.04422873      3.65066833
C           0.48557553     -0.92132425      6.10242403
H           1.45714199     -0.69777208      5.60372162
H           0.60414620     -0.77616204      7.18144450
H           0.32099469     -2.01421633      5.90183506
N          -0.62404616     -0.07969018      5.52281039
O          -3.64987076     -1.67367282      7.11519009
H          -3.40615033     -1.89503573      8.03698054
Cl          2.10479930     -1.82035137      3.43889594
C          -0.09842801     -4.77483665      5.01499293
H           0.99229765     -4.63288036      5.12696939
H          -0.48936731     -5.38291978      5.84645744
C          -0.45357593     -5.37535426      3.64003202
H          -1.55425850     -5.48232251      3.53422099
C           0.14513598     -4.55447848      2.47282730
H           1.24012983     -4.69964235      2.41126092
H          -0.31546177     -4.82618680      1.50786176
O           0.14328455     -6.68493517      3.66792027
H          -0.05900556     -7.17202201      2.84808937
O          -0.74490978     -3.50064284      5.12775733
H          -0.62334036     -3.02680722      4.18359511
O          -0.14134572     -3.17720962      2.68426257
H           0.87366038     -2.59589305      2.86429022
C           1.65708248      1.81566259     -3.52465262
H           1.23224588      1.86609085     -2.49494292
H           1.11379355      2.51846686     -4.18118195
C           1.60791874      0.36930436     -4.05911558
H           1.66971447      0.34650364     -5.16869283
C           2.64747700     -0.58995207     -3.43782175
H           2.14782064     -1.50391353     -3.05587338
H           3.42413456     -0.86427638     -4.17709844
O           0.33614194     -0.21795337     -3.67798394
H          -0.41243792      0.28481730     -4.05218514
O           2.98620190      2.32067921     -3.50616806
H           3.56353116      1.67267544     -2.97233969
O           3.39388603      0.02736542     -2.38789057
H           2.86985346     -0.00623665     -1.51836028
          96
 Energy =     -0.98544272 a.u.  #Cluster:   13
C           2.94129126      2.69658390     -0.24257003
C           1.80783144      1.92031693     -0.50018719
C           1.65529727      0.70774117      0.17365424
C           2.62866244      0.26629927      1.09588574
C           3.76218272      1.04698188      1.34508266
C           3.90479942      2.26722566      0.67778083
H           3.07336349      3.64385854     -0.76877316
H           1.06044757      2.24481761     -1.23388769
H           4.50752143      0.69780242      2.06082191
H           4.78168310      2.88671313      0.87430125
O           2.46472834     -0.88536544      1.86044740
O           0.59135563     -0.15066251     -0.10031460
C           2.43873809     -2.12363906      1.09254338
H           3.38726745     -2.24825430      0.56393806
H           2.32139719     -2.87799902      1.88130473
H           1.58665642     -2.12056905      0.40373009
C          -0.69610937      0.14538240      0.50446539
H          -1.16634074     -0.86695559      0.39192313
C          -1.47499082      1.21975619     -0.30151303
H          -1.06621369      2.24622495     -0.13894425
O          -1.33737055      1.05049488     -1.70420280
H          -1.29716314      0.07124666     -1.99199042
C          -0.57823441      0.52930078      1.98661728
H          -1.56502658      0.83338938      2.41363001
H           0.15469703      1.33834624      2.15611780
O          -0.23142203     -0.62129216      2.75423828
H           0.73969677     -0.83862062      2.59999707
C          -2.93619983      1.11987046      0.09697387
C          -3.71266786      0.05094077     -0.36726759
C          -3.48486988      2.06606006      0.96496301
C          -5.03481995     -0.09789624      0.07320635
H          -3.32277864     -0.66235355     -1.09539335
C          -4.79694238      1.91617396      1.43217908
H          -2.90411075      2.93071444      1.28353624
C          -5.56150353      0.82304711      1.02493247
H          -5.20465490      2.65980167      2.11407200
O          -6.81484112      0.51008457      1.52363146
O          -5.66659942     -1.16123910     -0.50791324
C          -7.49616394      1.52867017      2.29662475
H          -7.63970494      2.43241539      1.69730458
H          -8.45819216      1.04108972      2.50478672
H          -6.95064495      1.73517531      3.22172626
C          -7.00639329     -1.50416565     -0.06365465
H          -7.24761514     -2.34501598     -0.72442818
H          -6.97381914     -1.81838169      0.98993608
H          -7.68480027     -0.65976917     -0.21205726
C          -5.89452858     -2.02654923      3.65860598
H          -6.79681611     -2.23799899      4.26506540
H          -5.97791774     -1.00388281      3.22975959
C          -4.63855913     -2.25111011      4.48494771
H          -4.80305835     -1.88599387      5.57738443
H          -4.44662380     -3.34353086      4.62543058
C          -2.22515849     -1.85868273      4.88037064
H          -1.29828944     -1.37006532      4.52155812
H          -2.44796058     -1.47738340      5.90782421
H          -2.03358809     -2.94293225      4.99333229
C          -3.58521719     -0.09282851      3.85988141
H          -2.70566316      0.40853566      3.40772683
H          -4.47517794      0.16627835      3.26614919
H          -3.71531819      0.35474675      4.88434124
C          -3.04959864     -2.13859978      2.57755642
H          -2.10592203     -1.70432362      2.19461732
H          -2.92168689     -3.23409728      2.61567330
H          -3.86419211     -1.93966526      1.85210158
N          -3.38480175     -1.58575267      3.94536614
O          -5.90989987     -2.85538599      2.48670443
H          -5.96404032     -3.80355549      2.73252568
Cl         -3.41790864     -4.20483379      6.90380084
C          -0.71986836     -0.47474504     -4.73962961
H          -1.66201724     -0.33349696     -4.17076854
H          -0.84584731     -1.30796464     -5.45621151
C           0.45546556     -0.73086385     -3.76824413
H           1.04913142     -1.62440518     -4.06770311
C           1.38262641      0.47956187     -3.56958153
H           2.04868655      0.34331619     -2.69799831
H           1.99383738      0.66748810     -4.47756591
O          -0.19960259     -1.09426418     -2.52523968
H           0.40151117     -0.94295016     -1.74596322
O          -0.49395210      0.65314221     -5.57603058
H          -0.31327847      1.46031226     -5.00606421
O           0.65287970      1.70183090     -3.41121349
H          -0.00687263      1.61067237     -2.64557833
C          -4.20983697      1.19248646      7.70750627
H          -3.69407137      1.24782778      8.68437591
H          -4.45230782      2.21065579      7.36514470
C          -5.45351912      0.27936926      7.78793576
H          -6.02613393      0.30232226      6.83859827
C          -5.07328001     -1.17108584      8.16730614
H          -4.55255488     -1.20554210      9.14214353
H          -5.96044541     -1.82553035      8.21412594
O          -6.30034976      0.71896092      8.86506873
H          -6.67677759      1.59501979      8.67415580
O          -3.28998401      0.68894912      6.73638746
H          -3.22231726     -0.35260468      6.88027512
O          -4.20280219     -1.61140626      7.15196197
H          -3.84064371     -2.84829896      7.27984799
          96
 Energy =     -0.98315214 a.u.  #Cluster:   14
C           3.58308916      2.93324954      1.58735443
C           2.56818967      2.69652335      0.65439639
C           2.44430379      1.42090953      0.09852210
C           3.33738015      0.38892860      0.46541088
C           4.35336433      0.63542901      1.39410233
C           4.46385837      1.91107054      1.95649159
H           3.68804569      3.92351782      2.02840489
H           1.88497074      3.48905743      0.35031131
H           5.03497757     -0.16881723      1.67060361
H           5.24958612      2.10929395      2.68574638
O           3.18597370     -0.91568265      0.01037323
O           1.52869300      1.15921959     -0.91090515
C           3.38960373     -1.08457351     -1.42698343
H           4.42934111     -0.86052561     -1.67325447
H           3.15909707     -2.14740078     -1.56701582
H           2.69847320     -0.44433102     -1.99502109
C           0.14141338      0.91197875     -0.54987288
H          -0.17924158      0.38351668     -1.49610715
C          -0.56728547      2.28127420     -0.46563050
H          -0.04509688      2.97422844      0.23433229
O          -0.36308024      2.90196859     -1.73831142
H          -0.78455834      2.32524666     -2.47938400
C          -0.02677817     -0.02185025      0.64419805
H          -1.09674476     -0.16441323      0.90335711
H           0.52781910      0.30684055      1.53923637
O           0.40756171     -1.32949846      0.24828267
H           1.41660537     -1.35901845      0.25495160
C          -2.03896700      2.14867826     -0.14816262
C          -2.86564545      1.34642938     -0.94323834
C          -2.58005993      2.84438394      0.94298665
C          -4.23014526      1.26609828     -0.66363633
H          -2.46451761      0.78408494     -1.80305673
C          -3.94600101      2.77513297      1.22293259
H          -1.93909587      3.45893715      1.57420087
C          -4.78453534      1.99887933      0.40985842
H          -4.37889232      3.32106387      2.05931528
O          -6.11350951      1.94033658      0.78749368
O          -5.01076761      0.51757450     -1.54175887
C          -7.06556105      2.25200177     -0.27092804
H          -6.85204372      1.67990910     -1.18236669
H          -8.01772745      1.95608610      0.17999102
H          -7.03013670      3.32797829     -0.46629443
C          -5.50234908     -0.72665064     -0.97090750
H          -6.13280660     -1.11835977     -1.77715426
H          -4.65814431     -1.39018306     -0.76440243
H          -6.08441483     -0.52670251     -0.06608164
C           1.13609983      3.84998012     -3.90238327
H           0.27015929      4.21977636     -3.31406817
H           0.77156828      3.36435593     -4.82817832
C           2.18547876      4.95125140     -4.18591132
H           2.65193070      5.24163226     -3.21656651
H           3.00308616      4.50222968     -4.79588829
C           2.75779877      7.17064646     -5.10105441
H           2.39843931      8.09452501     -5.58805290
H           3.22933983      7.46279194     -4.14700634
H           3.54803930      6.74642514     -5.74548916
C           0.57092072      6.83787403     -4.02715717
H           0.06246533      7.66498809     -4.54957715
H          -0.24675864      6.11192316     -3.76710829
H           0.98512896      7.20954720     -3.07898005
C           1.05916060      5.81416062     -6.23646251
H           0.57826078      6.67193560     -6.73408449
H           1.82281887      5.39061392     -6.90432168
H           0.24086520      5.04644849     -6.14004281
N           1.62558921      6.18301734     -4.88705862
O           1.88834709      2.88263288     -3.17783900
H           1.39147318      2.61710145     -2.33011680
Cl         -1.76318817      4.74407182     -5.07481171
C           0.85752556      0.13656115     -3.94182127
H           1.17126441      0.58022996     -2.97507675
H           1.16264517      0.82785399     -4.74817372
C          -0.65542645     -0.15195549     -3.97572583
H          -1.00290610     -0.25074054     -5.02912825
C          -1.11556759     -1.39304044     -3.16671820
H          -1.93931080     -1.11908995     -2.48192887
H          -1.45338072     -2.19778826     -3.84857903
O          -1.32157542      0.96468548     -3.38153385
H          -1.95960319      1.47538273     -4.09916018
O           1.62457623     -1.04363448     -4.18617526
H           1.31961632     -1.75636697     -3.54942401
O          -0.05452707     -2.02064884     -2.43787089
H           0.03048266     -1.65286607     -1.50539566
C          -4.92139044      3.54546068     -4.83808779
H          -4.59804636      3.70617719     -5.88425572
H          -4.77091150      4.48384313     -4.27240384
C          -4.14797956      2.36712434     -4.20844419
H          -3.92101110      2.56777253     -3.13509323
C          -4.84513546      1.00438905     -4.34719691
H          -4.11789541      0.17795088     -4.26355373
H          -5.64924871      0.88002187     -3.59329276
O          -2.90013254      2.22977929     -4.91002611
H          -2.41598475      3.25829710     -5.04416118
O          -6.33567029      3.34502988     -4.79965987
H          -6.55341940      2.49755136     -5.28040449
O          -5.54702695      0.89104203     -5.59993826
H          -4.90962336      1.01439408     -6.33960760
          96
 Energy =     -0.98307377 a.u.  #Cluster:   15
C           2.45606422      2.76918027     -1.63213046
C           1.29558322      1.99373215     -1.69078537
C           1.35599595      0.64836458     -1.31792529
C           2.57873395      0.07370772     -0.90839426
C           3.73832981      0.85554265     -0.85876804
C           3.66655114      2.20586459     -1.21187198
H           2.41662324      3.82020801     -1.91695936
H           0.34256171      2.41238746     -2.02930031
H           4.67528558      0.40072466     -0.53493661
H           4.56483958      2.82260253     -1.16449973
O           2.67115802     -1.23526865     -0.44910023
O           0.23701473     -0.17304468     -1.44516060
C           2.49972260     -2.24834673     -1.48362675
H           3.28636140     -2.15200818     -2.23549312
H           2.60390277     -3.18183624     -0.91616016
H           1.49985258     -2.16081029     -1.93317146
C          -0.77977835     -0.10196494     -0.41351492
H          -1.35214106     -1.02662259     -0.68384382
C          -1.63207775      1.18345304     -0.55547823
H          -1.13146347      2.04894698     -0.05903212
O          -1.63871465      1.48678672     -1.96733855
H          -2.43359775      2.04150200     -2.20343550
C          -0.21014895     -0.21017883      1.01190891
H          -1.02390222     -0.17619584      1.76621974
H           0.52615844      0.58509866      1.22665340
O           0.37744933     -1.48764674      1.21112568
H           1.22717016     -1.54891498      0.67878238
C          -3.05469811      1.00981097     -0.07897157
C          -3.78228767     -0.13193900     -0.44113175
C          -3.68884628      2.04540951      0.62018858
C          -5.15126400     -0.19953157     -0.19095433
H          -3.27708040     -0.96364849     -0.94755310
C          -5.04843938      1.96768005      0.91848696
H          -3.12674398      2.92821009      0.92889922
C          -5.80079273      0.85616202      0.49987194
H          -5.55357767      2.76446295      1.46657425
O          -7.13489329      0.97401860      0.77806049
O          -5.95444433     -1.21237287     -0.69653408
C          -7.98942688     -0.18231603      0.56802668
H          -7.62208898     -1.03857804      1.14137171
H          -8.94983680      0.18319010      0.95268044
H          -8.04501194     -0.41630814     -0.50126575
C          -5.37493876     -2.54834670     -0.72041719
H          -6.26700936     -3.18689416     -0.84722007
H          -4.71176359     -2.66455058     -1.58648309
H          -4.86154020     -2.77192087      0.21774288
C           0.64930535     -3.08604955     -4.52234691
H           0.18777200     -3.61904958     -5.37562686
H           1.37049318     -2.32877074     -4.87675615
C          -0.38668690     -2.50773452     -3.54273782
H          -0.79447700     -3.36896711     -2.94037636
H           0.13994014     -1.86393718     -2.78380102
C          -2.74516299     -1.89238644     -3.26724238
H          -3.62049568     -1.34198504     -3.67182655
H          -3.05656978     -2.97286212     -3.20804100
H          -2.54198891     -1.53800209     -2.24049518
C          -1.92757085     -2.21709051     -5.54088034
H          -2.86471408     -1.72859971     -5.87783786
H          -1.14697757     -2.02075633     -6.28797619
H          -2.12497419     -3.31724429     -5.53392283
C          -1.15196613     -0.27462279     -4.25252023
H          -1.97359514      0.34377457     -4.66128443
H          -0.90926163      0.14569021     -3.23789020
H          -0.25963819     -0.12941257     -4.87789494
N          -1.53860582     -1.73175743     -4.16289602
O           1.44353249     -4.00051796     -3.76855084
H           0.93829407     -4.85751036     -3.65343151
Cl         -1.60639371     -5.31457274     -4.13294731
C          -4.14460321     -7.13252209     -2.93721251
H          -3.61104535     -7.40255713     -2.00751084
H          -3.43346383     -7.17684367     -3.78194331
C          -4.84869251     -5.76092199     -2.83113244
H          -5.40359194     -5.53188799     -3.76804349
C          -5.79544992     -5.71347645     -1.61155548
H          -5.25489587     -5.93370722     -0.67440426
H          -6.30342703     -4.73360173     -1.52822876
O          -3.89410994     -4.73266916     -2.61667103
H          -2.95727429     -4.97364485     -3.16374427
O          -5.13440450     -8.17368706     -3.07682762
H          -5.44647895     -8.21565307     -4.00433704
O          -6.87312647     -6.64080738     -1.76128033
H          -6.50118235     -7.52663934     -2.04895284
C          -6.21188078      1.31711679     -3.05399429
H          -6.81320996      1.88623869     -3.78626913
H          -6.45076563      1.66775584     -2.03377469
C          -4.69648062      1.37185755     -3.32913587
H          -4.16078246      0.63545569     -2.67506438
C          -4.37081065      1.09008016     -4.80745111
H          -4.95832261      1.70878356     -5.50731487
H          -3.28592863      1.21011962     -5.02059485
O          -4.14987281      2.61498832     -2.88745139
H          -4.36323222      3.35253225     -3.49377153
O          -6.62868481     -0.04134400     -3.24366040
H          -6.43491892     -0.57840959     -2.41686227
O          -4.62464429     -0.29223460     -5.07661033
H          -5.54236186     -0.52787804     -4.71650791
          96
 Energy =     -0.98258276 a.u.  #Cluster:   16
C           2.46506150      3.93898189     -0.05040286
C           1.46042715      2.97277846     -0.14422177
C           1.64431046      1.73203254      0.47315329
C           2.83097466      1.47607230      1.19642022
C           3.84457658      2.43488823      1.26557071
C           3.65128254      3.67079217      0.64230286
H           2.32846249      4.90336278     -0.53771452
H           0.55503065      3.14900845     -0.73210538
H           4.76912426      2.21422294      1.80644627
H           4.43606513      4.42564607      0.69193808
O           2.94244551      0.27063882      1.89392642
O           0.78600762      0.66411780      0.25868430
C           3.91319128     -0.65061201      1.31682674
H           4.92343857     -0.25043050      1.47966915
H           3.74976183     -1.56464779      1.89279736
H           3.70143645     -0.80316698      0.25512407
C          -0.53975465      0.65447312      0.82974297
H          -0.90142841     -0.30249485      0.37412911
C          -1.44943198      1.83852708      0.42622976
H          -1.13482062      2.78395112      0.92875125
O          -1.23887720      2.02507635     -0.98760371
H          -1.96137596      2.57274004     -1.36351737
C          -0.42931940      0.55498436      2.35993306
H          -1.40192870      0.31101621      2.83719314
H          -0.02287581      1.48882388      2.81049191
O           0.42904336     -0.53404038      2.70982137
H           1.28198221     -0.44792405      2.16708427
C          -2.89978885      1.50894077      0.70379019
C          -3.60488989      0.71473581     -0.21866509
C          -3.53234642      1.98522778      1.85160986
C          -4.94288203      0.40957899      0.00809607
H          -3.08204751      0.34757452     -1.10314841
C          -4.87634200      1.68023535      2.09107435
H          -2.98663836      2.58567363      2.58721093
C          -5.59315952      0.89613778      1.17923738
H          -5.38557798      2.05113353      2.98000265
O          -6.89416612      0.68299084      1.56407368
O          -5.73658641     -0.34953679     -0.83500794
C          -7.75904222     -0.07090411      0.67680493
H          -7.37505834     -1.08961586      0.55626024
H          -8.70910723     -0.05580886      1.22318731
H          -7.83823086      0.43517584     -0.29106031
C          -5.11489288     -0.88759955     -2.02805189
H          -5.95315111     -1.42470256     -2.48998876
H          -4.76463939     -0.07795986     -2.67485205
H          -4.30785725     -1.57610130     -1.75937678
C           2.68951285     -2.14538625      7.69860078
H           3.34701823     -2.98960381      7.41315821
H           3.19117065     -1.51602101      8.45654537
C           2.18898838     -1.33697172      6.49447367
H           1.63381140     -2.01079131      5.79974591
H           1.40081635     -0.59779489      6.84905504
C           2.58471145      0.28315824      4.70230267
H           3.32748410      0.80276677      4.04418560
H           1.92247573     -0.29471532      4.01855560
H           1.96339911      1.07130044      5.17228182
C           4.17188680     -1.57121397      5.03042166
H           4.95882654     -1.03961130      4.44149559
H           4.69494493     -2.22676993      5.74190238
H           3.60939521     -2.19858199      4.31984670
C           4.07238280      0.29210926      6.65684865
H           4.67281244      1.05054783      6.06985212
H           3.42395451      0.89152124      7.31630986
H           4.78627358     -0.27887253      7.26431811
N           3.26530066     -0.58515087      5.73066189
O           1.56780134     -2.79961203      8.29089664
H           0.90914855     -2.13628407      8.60216372
Cl          6.19714278      0.89057656      3.62723164
C          -0.85640100      0.45306360      5.88856067
H          -0.30901702      0.04894371      5.01280512
H          -1.55435989     -0.31342399      6.26569888
C          -1.56498829      1.77978207      5.55694132
H          -2.12460929      2.15748899      6.43891889
C          -0.61557652      2.85655145      4.99245432
H          -0.30868672      2.61012315      3.95031801
H          -1.08692719      3.85455071      5.01654117
O          -2.47371363      1.55456754      4.46218405
H          -3.25241025      1.03735200      4.75217765
O           0.06990270      0.65927742      6.96546665
H           0.52595829      1.56694550      6.80959562
O           0.54322901      2.92047154      5.83509956
H           1.39522949      2.98864288      5.20839166
C           2.69314932      4.55635797      3.93090788
H           3.19405877      4.73067606      2.96083587
H           1.76451814      5.14518642      3.97694030
C           3.63774391      4.81943425      5.12187551
H           3.10852742      4.67173431      6.08709336
C           4.91492626      3.95084837      5.04979450
H           5.53797946      4.23474883      4.18234932
H           5.51145814      4.04969105      5.97345807
O           4.12629563      6.16857245      5.03441166
H           3.44581969      6.79837046      5.33538675
O           2.28536916      3.17830584      3.97453892
H           3.19545209      2.60906022      4.17307067
O           4.50599144      2.59556828      4.93281493
H           5.34223169      1.93625144      4.27806886
          96
 Energy =     -0.98121335 a.u.  #Cluster:   17
C           3.84952685      2.44639124      1.13626969
C           2.58440373      2.07549176      0.67918255
C           2.33015139      0.73266647      0.37560709
C           3.34834151     -0.22765088      0.54271232
C           4.61690508      0.14628203      0.99788951
C           4.85899096      1.48870506      1.29804187
H           4.05269242      3.49055297      1.36807659
H           1.78156760      2.80709416      0.53362846
H           5.39033866     -0.61096672      1.13348923
H           5.84054417      1.79077152      1.66198209
O           3.05501397     -1.57950193      0.34872428
O           1.12670330      0.35013010     -0.19876905
C           3.45884043     -2.10693045     -0.95078307
H           4.52731564     -2.32557405     -0.92373728
H           2.83706365     -3.01082711     -1.03922558
H           3.20229149     -1.40396032     -1.75137774
C          -0.03366781      0.19734149      0.66116018
H          -0.70704046     -0.31966579     -0.08786189
C          -0.59333085      1.59275601      1.03971194
H          -0.11626910      1.98772917      1.96563056
O          -0.26850995      2.51844595      0.02650200
H          -0.11787090      1.95121250     -0.99218839
C           0.23262865     -0.71227067      1.86158847
H          -0.67316912     -0.83217434      2.48940677
H           1.07443801     -0.35589205      2.48233755
O           0.50858338     -2.03882338      1.41029461
H           1.25959472     -2.00664428      0.74712775
C          -2.10691769      1.54420852      1.16960745
C          -2.88087412      1.08932678      0.09651127
C          -2.73686469      2.03381893      2.32152543
C          -4.27208724      1.18318653      0.14443182
H          -2.39956953      0.68214113     -0.80375466
C          -4.12727155      2.09798405      2.39538485
H          -2.14245521      2.37151879      3.16981968
C          -4.91150523      1.68399349      1.30315664
H          -4.63000415      2.46620233      3.28837921
O          -6.25463013      1.87844861      1.50506632
O          -5.05696766      0.92526033     -0.97514439
C          -7.17195502      1.38913008      0.49230572
H          -7.04932172      0.30991492      0.36102710
H          -8.14399978      1.64026944      0.93108503
H          -7.00289294      1.91965033     -0.45182559
C          -4.71683439     -0.27859270     -1.72556402
H          -5.42544349     -0.23764563     -2.55769907
H          -3.67725709     -0.24750915     -2.08129708
H          -4.87321300     -1.16141616     -1.09739237
C          -3.75956606      4.12787589     -1.39203721
H          -3.95740274      3.85698369     -0.33717553
H          -3.99930955      5.19836612     -1.54804574
C          -2.32884943      3.75522371     -1.81417034
H          -1.92567137      2.92667416     -1.14893795
H          -2.34896477      3.30158350     -2.83710108
C           0.00170004      4.43972665     -2.31953967
H           0.70565888      5.26972014     -2.45729328
H           0.48083616      3.69273962     -1.63425309
H          -0.11838528      3.89914287     -3.28054255
C          -1.12851257      5.31112700     -0.31971964
H          -0.35302325      6.08099953     -0.21000108
H          -2.05737988      5.67352735      0.14230125
H          -0.79411671      4.40678590      0.27364751
C          -1.81382580      6.07530953     -2.58053916
H          -1.10990327      6.92136678     -2.54000396
H          -1.94109992      5.78748624     -3.64151623
H          -2.79956464      6.43441651     -2.22824662
N          -1.32821517      4.90037930     -1.76107100
O          -4.66779964      3.45500607     -2.25531229
H          -4.79225595      2.50179926     -1.95605007
Cl         -0.32985008      1.31001479     -2.45584374
C          -1.43518821     -2.10706291     -1.60584601
H          -1.38380813     -1.04153383     -1.27494681
H          -1.42753137     -2.76225804     -0.71215298
C          -0.27188980     -2.44430463     -2.55713733
H          -0.11659597     -3.54681681     -2.63698030
C          -0.42634244     -1.82680859     -3.96106909
H          -0.69353953     -0.75551167     -3.93210051
H           0.49035256     -1.96884565     -4.55800304
O           0.95488312     -1.97891619     -1.99988590
H           0.90114899     -1.01589155     -1.72699910
O          -2.73064084     -2.27341225     -2.19525016
H          -2.63818406     -2.54029755     -3.15350208
O          -1.50338871     -2.57849073     -4.57830980
H          -1.80623267     -2.11449447     -5.38255719
C           4.56361091     -5.59884328      3.35284328
H           3.77483463     -6.05416310      2.72680804
H           5.05330683     -6.38577069      3.95164933
C           4.01443531     -4.45308432      4.22820787
H           4.84270819     -3.94322874      4.76933855
C           3.19872705     -3.43355937      3.41127780
H           2.37653014     -3.90259513      2.84321148
H           2.78979146     -2.63241615      4.05164312
O           3.06470958     -4.98383537      5.16832676
H           3.52697405     -5.45647578      5.88663515
O           5.60175632     -5.10147797      2.50524261
H           5.31091428     -4.21239376      2.13698916
O           4.16635434     -2.85046006      2.51446086
H           3.70365392     -2.46262388      1.71765298
          96
 Energy =     -0.97992059 a.u.  #Cluster:   18
C           3.36820061      2.90589616      0.27954482
C           2.21208783      2.19197945     -0.04822236
C           2.32443708      0.84817869     -0.41145232
C           3.59422347      0.23369365     -0.46100104
C           4.74910573      0.95098959     -0.14303428
C           4.62446770      2.29065953      0.23998097
H           3.28614877      3.95361546      0.57109891
H           1.22071875      2.66491958     -0.02924516
H           5.71912402      0.45837286     -0.18436403
H           5.51604366      2.85792172      0.50622789
O           3.73997382     -1.13280812     -0.73537643
O           1.22649506      0.10388566     -0.83814421
C           3.38712187     -1.49656753     -2.10456861
H           4.05879966     -0.98397878     -2.79756926
H           3.55476497     -2.57910077     -2.11089051
H           2.33698027     -1.24270778     -2.29820995
C           0.31685463     -0.40407181      0.16648931
H          -0.26585094     -1.11565307     -0.47786115
C          -0.58235618      0.73288483      0.73437494
H          -0.10058705      1.23663308      1.61506454
O          -0.67905024      1.79396534     -0.21292210
H          -0.99879854      1.45904987     -1.08281771
C           1.04086418     -1.12781266      1.30159760
H           0.31031604     -1.59442687      2.00540069
H           1.71809614     -0.46306506      1.87809281
O           1.81066391     -2.24683669      0.81744306
H           2.59763847     -1.90240753      0.25822397
C          -1.96393542      0.21686865      1.07802647
C          -2.79172205     -0.29946837      0.07563893
C          -2.43375475      0.29731620      2.39747066
C          -4.08197955     -0.73286477      0.39395588
H          -2.44701701     -0.38638522     -0.96306281
C          -3.71588408     -0.14491020      2.72326250
H          -1.79191907      0.72178255      3.18272130
C          -4.55111189     -0.66302162      1.72155202
H          -4.09397569     -0.07296532      3.74131603
O          -5.76637407     -1.16540459      2.15291793
O          -4.89763173     -1.14878659     -0.66506994
C          -6.93295015     -0.68046802      1.43214610
H          -6.79905203     -0.77638606      0.34775535
H          -7.72527053     -1.33885054      1.80139948
H          -7.11086566      0.36049281      1.71750343
C          -5.04077514     -2.59826923     -0.74757470
H          -5.61691825     -2.73109759     -1.67430593
H          -4.05170464     -3.06427011     -0.85573398
H          -5.57585081     -2.96444158      0.13004215
C           1.62383789     -3.68076416      3.99847935
H           2.11622998     -2.73964598      4.31923529
H           1.83054437     -4.48990562      4.72005668
C           0.12426980     -3.47532094      3.72786833
H           0.01543288     -2.53024761      3.11383398
H          -0.24517470     -4.31439885      3.08087125
C          -2.09148434     -2.77886056      4.50150500
H          -2.81817091     -2.72850548      5.32516941
H          -1.94752827     -1.73318105      4.13431790
H          -2.53032016     -3.37156293      3.67896189
C          -0.16035778     -2.45092561      5.97569638
H          -0.84907220     -2.15867664      6.76790943
H           0.76525508     -2.82351726      6.41107739
H           0.14419576     -1.39437339      5.41409424
C          -0.99687545     -4.73312926      5.53808426
H          -1.61435369     -4.68243845      6.44935069
H          -1.50696915     -5.39072961      4.81224977
H          -0.04284858     -5.21580065      5.81070700
N          -0.76217686     -3.35437080      4.95515035
O           2.19786360     -4.15140378      2.78149138
H           2.27218173     -3.39587733      2.11722341
Cl          0.39046311     -0.19593679      4.20375064
C          -5.28299285     -1.48031506     -4.64610217
H          -5.89785798     -1.30305647     -3.74399735
H          -5.92657842     -1.85099910     -5.46288181
C          -4.12467843     -2.45282738     -4.33325996
H          -3.69463336     -2.87756335     -5.26557733
C          -3.01141360     -1.84840101     -3.45475581
H          -2.77445498     -2.52680770     -2.60499855
H          -2.09833666     -1.64467584     -4.04459815
O          -4.66510452     -3.53552917     -3.53942638
H          -5.16658522     -4.15518229     -4.10036115
O          -4.78033569     -0.24185005     -5.13906302
H          -4.18469392      0.15532938     -4.42949868
O          -3.37114464     -0.55575319     -2.95016531
H          -4.03712816     -0.66347450     -2.19793261
C          -1.80631808     -3.36556457      0.64289073
H          -1.14665524     -2.73231314      1.26524337
H          -2.85829727     -3.20163742      0.94204603
C          -1.41516614     -4.85283901      0.70644779
H          -2.05219136     -5.44727410      0.01668070
C           0.08635954     -5.09103241      0.42823934
H           0.69716253     -4.99985617      1.35120042
H           0.26627587     -6.08063578     -0.02725734
O          -1.69474405     -5.25151247      2.07038603
H          -1.83890072     -6.21578620      2.11557342
O          -1.73652598     -2.92590682     -0.71587840
H          -0.85100998     -3.24311603     -1.10462783
O           0.53227627     -4.15412593     -0.56071191
H           1.03594670     -3.39049778     -0.10556986
          96
 Energy =     -0.97971663 a.u.  #Cluster:   19
C           5.48006297      1.82965981      0.13422107
C           4.37081150      1.09830933     -0.29946458
C           4.23882002     -0.22805801      0.11555680
C           5.20803998     -0.82784911      0.94761066
C           6.31526114     -0.08941411      1.37791848
C           6.43765054      1.24275916      0.97039260
H           5.59928364      2.86500758     -0.18278977
H           3.61480750      1.53778066     -0.95383671
H           7.05672820     -0.55786757      2.02444562
H           7.29486395      1.82810474      1.30459856
O           5.05228606     -2.11093064      1.45721706
O           3.20869790     -1.04009150     -0.35586950
C           4.93288924     -3.16255320      0.44755949
H           5.83935746     -3.18524702     -0.16058106
H           4.83829255     -4.06014424      1.06875706
H           4.03542450     -3.00293959     -0.17241815
C           1.91011626     -0.91864979      0.29428656
H           1.50393931     -1.94186838      0.05236672
C           1.11338405      0.20272918     -0.42603978
H           1.26784713      1.21028130      0.02267647
O           1.62179373      0.34795788     -1.76390484
H           2.21923962     -0.43444101     -1.96937253
C           1.98418108     -0.69376933      1.80310160
H           0.97082420     -0.50073005      2.22519131
H           2.66236959      0.13137340      2.08546808
O           2.39993377     -1.90095243      2.45447565
H           3.36534728     -2.09012436      2.22633845
C          -0.34801416     -0.17638636     -0.47118039
C          -0.79491620     -1.04813195     -1.46471211
C          -1.25187116      0.30772143      0.48765312
C          -2.13424237     -1.43621080     -1.52203249
H          -0.08659571     -1.43864658     -2.20889914
C          -2.59369644     -0.05917394      0.43444080
H          -0.91291874      0.97076751      1.28601423
C          -3.05287103     -0.92814378     -0.57646470
H          -3.30811867      0.30949988      1.17140072
O          -4.40318270     -1.16338424     -0.50519291
O          -2.58394042     -2.26532799     -2.54764902
C          -5.00192442     -1.99031020     -1.53562720
H          -4.62889894     -3.01510297     -1.45158369
H          -6.06751774     -1.91926088     -1.29032711
H          -4.78245860     -1.57969363     -2.52717132
C          -1.84708279     -3.51530058     -2.66365758
H          -2.26911090     -3.94890480     -3.57468540
H          -0.76785218     -3.33629667     -2.76004624
H          -2.05173920     -4.13790583     -1.78799919
C           3.69927663     -0.22689688     -4.11866752
H           4.44755345      0.17049403     -4.83014773
H           3.12603191      0.60493570     -3.66696000
C           2.83456858     -1.32835758     -4.70072798
H           3.43806321     -2.00237562     -5.34890799
H           2.56519024     -2.09861534     -3.74138199
C           0.82491834     -2.25955638     -5.70144998
H          -0.08014018     -2.08808594     -6.29659290
H           1.50073138     -2.96141236     -6.24897720
H           0.54298788     -2.80433249     -4.77380885
C           1.78967206     -0.17981721     -6.62587096
H           0.84990406      0.06540763     -7.14577081
H           2.31381433      0.76618912     -6.40871443
H           2.42268141     -0.75362538     -7.32696180
C           0.66705028     -0.16134306     -4.42922906
H          -0.31203016      0.07158284     -4.86999776
H           0.48178239     -0.72260435     -3.47089766
H           1.14542257      0.78116358     -4.10482893
N           1.54166017     -0.96793359     -5.35611713
O           4.51455990     -0.85081502     -3.11085990
H           3.97431847     -1.02774274     -2.28217702
Cl          2.04936703     -2.89389776     -2.37018096
C          -0.45794357     -2.51313941      6.22980970
H           0.26481242     -2.07461093      6.94919792
H          -0.74548356     -3.52717037      6.56190025
C           0.15417587     -2.51944222      4.81439319
H           0.40229395     -3.54827484      4.47915486
C          -0.69066258     -1.76797909      3.76729966
H          -0.33520356     -1.95713598      2.73679992
H          -1.77180634     -1.98582962      3.84172357
O           1.37470921     -1.76479037      4.96853762
H           1.95500268     -1.88228845      4.15118677
O          -1.68642382     -1.78654345      6.31224969
H          -1.57821596     -0.89174572      5.89584613
O          -0.58118405     -0.35290409      4.01713466
H           0.31908930     -0.18111553      4.42362527
C           3.14143528     -5.15919900     -5.05931342
H           2.44483252     -4.83671367     -4.25843292
H           2.69283381     -5.98246545     -5.63667739
C           4.53294244     -5.51195711     -4.49737515
H           5.25680552     -5.68345468     -5.32525886
C           5.05396911     -4.43356985     -3.52754020
H           4.34139221     -4.25135535     -2.70016723
H           6.04755245     -4.69855036     -3.12635871
O           4.44199037     -6.69124441     -3.68170668
H           4.28334432     -7.47789946     -4.23702458
O           3.27920386     -4.08343762     -6.00565635
H           3.99326072     -3.45227201     -5.63786347
O           5.21271562     -3.24623877     -4.33371396
H           5.02109515     -2.42544218     -3.77221968
          96
 Energy =     -0.97794842 a.u.  #Cluster:   20
C           4.04841218      2.80511246      0.47453449
C           3.04228714      1.99932071     -0.06227346
C           2.96545121      0.65580410      0.32045103
C           3.93235179      0.13554644      1.20742935
C           4.97650724      0.92331586      1.69540344
C           5.01193055      2.27508486      1.34204423
H           4.07181262      3.86742322      0.21935773
H           2.30206147      2.41191686     -0.76225636
H           5.74096132      0.48391492      2.33295400
H           5.79905712      2.93167568      1.73021845
O           3.78811040     -1.17425640      1.69328827
O           2.05759149     -0.23675597     -0.21795352
C           4.24766809     -2.20444511      0.76814313
H           5.25529915     -1.96931034      0.41251598
H           4.24414635     -3.11062312      1.39220056
H           3.53083345     -2.26071247     -0.06115481
C           0.62398765     -0.09494944      0.02711238
H           0.22799868     -0.36044038     -0.98617187
C           0.14326474      1.30935430      0.43178734
H           0.83813529      1.74520312      1.18943343
O           0.20597482      2.09870379     -0.76915106
H           0.20634070      3.06345596     -0.51323081
C           0.27811020     -1.17528160      1.07448456
H           0.44963288     -2.18391302      0.65628347
H          -0.76662343     -1.09278099      1.43328473
O           1.05575486     -1.03748370      2.26804972
H           2.01546033     -1.21330723      2.04447602
C          -1.28649703      1.35200194      0.93476714
C          -2.32960634      0.79947042      0.18180652
C          -1.55794721      2.00384658      2.14659635
C          -3.64386320      0.89843908      0.65148142
H          -2.14227314      0.32006116     -0.77974687
C          -2.86865143      2.12351693      2.61102437
H          -0.73629990      2.45690553      2.71466689
C          -3.91629689      1.57943186      1.85968469
H          -3.09707472      2.64591272      3.53929395
O          -5.19688684      1.67787687      2.39356629
O          -4.63144681      0.39267398     -0.18257706
C          -6.09538504      2.49844612      1.59320878
H          -6.12248384      2.14345223      0.55665143
H          -7.05594366      2.35227003      2.09715587
H          -5.76985221      3.54145990      1.64691030
C          -5.48728139     -0.60957660      0.43123747
H          -6.25928600     -0.75118258     -0.33279792
H          -4.90872556     -1.52335144      0.58946111
H          -5.91277831     -0.24179217      1.37186486
C           1.22315680      4.41616778      5.02801671
H           0.49342207      4.23384842      4.21420056
H           0.76648178      4.22206037      6.01542332
C           2.52797272      3.61424304      4.81786390
H           2.97564985      3.93462655      3.82727820
H           3.27140281      3.93418505      5.58527999
C           3.76788529      1.49991898      4.85981102
H           3.74288919      0.38748585      4.78675347
H           4.38376801      1.85749255      4.01050785
H           4.30264267      1.75715592      5.78779250
C           1.67764204      1.64547623      3.56572154
H           1.46427239      0.55634922      3.55785915
H           0.71278083      2.18190560      3.41016219
H           2.28465458      1.86458591      2.65861507
C           1.60423719      1.62676087      6.02474371
H           1.60043054      0.52340221      6.08675502
H           2.03616330      2.01802472      6.96125337
H           0.54852300      1.95132035      5.97616904
N           2.38126663      2.10203172      4.81613299
O           1.59272021      5.77988282      5.06018361
H           1.52340012      6.21902808      4.06866151
Cl          1.51373720      4.15880489      1.57363071
C           3.20826264      7.07217302      2.59455820
H           3.41701382      7.30729578      1.53560619
H           3.26926563      7.99728926      3.20062682
C           4.15509590      5.98368302      3.13583933
H           3.77395566      4.96238458      2.85730639
C           5.61148473      6.14820953      2.67207651
H           5.86733793      7.18234352      2.39073334
H           6.31038678      5.80053053      3.46100663
O           4.23927024      6.03117940      4.56803391
H           3.30714458      6.11743140      4.96714095
O           1.84812876      6.66339032      2.68818571
H           1.66360499      5.72318070      2.07634033
O           5.87594811      5.26366214      1.57568210
H           5.36740913      5.53962662      0.78398090
C           5.63762660     -3.80309747      3.70062039
H           5.13529753     -3.62577374      2.72689010
H           6.19455053     -4.75628674      3.65259108
C           4.63487049     -3.77650641      4.86991869
H           5.16814304     -3.89173127      5.83853500
C           3.72743373     -2.52799802      4.87544958
H           2.79393802     -2.71953292      4.31182109
H           3.48054405     -2.21602967      5.90563716
O           3.69657329     -4.85355760      4.70097159
H           4.10388915     -5.71015745      4.93985264
O           6.65069672     -2.81952904      3.90917130
H           6.20967643     -1.94229155      4.09998493
O           4.42358209     -1.39882247      4.32544345
H           4.27206477     -1.34816422      3.32754655
          96
 Energy =     -0.97715252 a.u.  #Cluster:   21
C           2.82848004      2.91943066      0.84047383
C           1.75649645      2.54650872      0.02549021
C           1.75412376      1.27391124     -0.55384441
C           2.84513559      0.40011280     -0.35783832
C           3.91680617      0.78042343      0.45703538
C           3.89233112      2.03795599      1.06604569
H           2.83650036      3.90890939      1.29869474
H           0.94356269      3.24434040     -0.19269898
H           4.74845536      0.09101046      0.60538150
H           4.71891362      2.33815141      1.71155054
O           2.88262455     -0.89437807     -0.87345459
O           0.74248567      0.90540126     -1.43513045
C           2.83956269     -0.96773969     -2.33144972
H           3.68241027     -0.41431919     -2.75144008
H           2.94103381     -2.04613635     -2.50846147
H           1.87659784     -0.58600927     -2.69517218
C          -0.46955421      0.31588181     -0.88871112
H          -0.82424164     -0.21686324     -1.81406225
C          -1.45019655      1.44980001     -0.49762597
H          -1.01372560      2.06108252      0.32811533
O          -1.65304866      2.28373990     -1.63907964
H          -0.86045240      2.90633870     -1.76648919
C          -0.20830658     -0.65758194      0.26713148
H          -1.14960034     -1.01420292      0.73333822
H           0.43391177     -0.22290808      1.05343880
O           0.39102864     -1.85889430     -0.23745973
H           1.38286153     -1.70095605     -0.37022353
C          -2.84175311      0.96786933     -0.13185301
C          -3.30769130     -0.30830564     -0.47608102
C          -3.68780537      1.85177493      0.54795602
C          -4.59969163     -0.70451362     -0.11504451
H          -2.69046479     -1.01228668     -1.03847891
C          -4.98597216      1.47007940      0.90383003
H          -3.34406540      2.85869607      0.79035113
C          -5.45080703      0.19346690      0.58254568
H          -5.62417072      2.17990234      1.42549154
O          -6.70622870     -0.29818221      0.89209240
O          -4.89641239     -1.98872006     -0.53123795
C          -7.63202059      0.60090639      1.55099266
H          -7.84944883      1.45934707      0.90837491
H          -8.51685179     -0.03942751      1.66595081
H          -7.23991825      0.90552053      2.52557425
C          -6.14972110     -2.57300886     -0.09303906
H          -6.08088402     -3.59362491     -0.48284799
H          -6.21009384     -2.55995423      1.00072659
H          -6.98845896     -2.02200893     -0.53333886
C          -0.49217161     -3.55754238     -3.19843523
H           0.45153395     -4.06443195     -2.91561737
H          -0.54459443     -3.51837993     -4.30725313
C          -1.68716777     -4.26511405     -2.55122690
H          -1.49411862     -5.38277625     -2.52922071
H          -1.79101574     -3.94287384     -1.49192756
C          -4.08471353     -4.82552655     -2.56581451
H          -5.06316744     -4.72055163     -3.05400400
H          -3.80893551     -5.91943697     -2.58923755
H          -4.18227488     -4.52277364     -1.51188791
C          -2.93565606     -4.50072187     -4.71007823
H          -3.82935932     -4.23184283     -5.28500161
H          -2.03785219     -4.10227758     -5.22464935
H          -2.82111003     -5.61946508     -4.74211611
C          -3.36900633     -2.56092071     -3.24656343
H          -4.20749163     -2.32361480     -3.91624361
H          -3.66328972     -2.23958805     -2.22555884
H          -2.49717712     -1.93274848     -3.53719103
N          -3.01218794     -4.02749364     -3.27719517
O          -0.46249330     -2.18505772     -2.80046380
H          -0.13766153     -2.10397741     -1.84289096
Cl         -0.16749211     -6.14658186     -4.77600618
C          -3.10535953     -8.88616618     -4.62650501
H          -2.36978745     -8.86388397     -5.44895309
H          -3.98741582     -8.28817093     -4.90874028
C          -2.50728696     -8.40709535     -3.28493231
H          -3.21953229     -8.61554856     -2.45485506
C          -1.13688306     -9.06349775     -2.99853900
H          -0.38308661     -8.78141768     -3.75431795
H          -0.76901404     -8.79509858     -1.99350309
O          -2.34009624     -7.01683497     -3.32699250
H          -1.38859236     -6.71798847     -3.99783980
O          -3.60974789    -10.22151253     -4.49109533
H          -2.94304558    -10.75505288     -3.97402146
O          -1.34725066    -10.49625183     -2.99542690
H          -0.60991609    -10.93814790     -3.45867475
C           0.93428287      3.21837087     -3.42612483
H           1.65221747      3.83323744     -3.99113756
H           1.47640756      2.41869681     -2.88426183
C          -0.18483150      2.64372645     -4.31634184
H          -0.83802316      1.95626193     -3.72089923
C          -1.03315099      3.72615787     -5.01319528
H          -0.95188054      3.64135496     -6.11296374
H          -2.09578089      3.66895449     -4.70570987
O           0.43895791      1.91539267     -5.38722264
H           0.58384745      0.98324716     -5.11746813
O           0.33648641      4.00819269     -2.37975354
H          -0.15224826      4.77481391     -2.81721059
O          -0.65090692      5.04791554     -4.58822941
H           0.13271697      5.35259772     -5.09583410
          96
 Energy =     -0.97711689 a.u.  #Cluster:   22
C           3.31449501      3.09727446     -0.90191324
C           2.20501171      2.29679741     -0.61546805
C           2.39201815      1.10226773      0.08385444
C           3.68659357      0.72205043      0.50428182
C           4.79574136      1.51258619      0.19399743
C           4.59866552      2.70778016     -0.50607749
H           3.17309327      4.03171782     -1.44850956
H           1.19213796      2.58517026     -0.93545515
H           5.78914922      1.18633388      0.49504156
H           5.45710257      3.33188317     -0.75407454
O           3.89051496     -0.37536578      1.33873779
O           1.35752245      0.20059334      0.31013693
C           3.60898157     -1.66437136      0.71795665
H           4.29287230     -1.82291946     -0.11942882
H           3.80825048     -2.36378972      1.53768932
H           2.55996916     -1.70041429      0.39599790
C           0.35810606      0.53980004      1.31619886
H          -0.05660349     -0.48490629      1.49432725
C          -0.69214101      1.49654774      0.68465416
H          -0.47332423      2.58122477      0.88918626
O          -0.62486643      1.42935930     -0.73932548
H          -0.32646053      0.53736981     -1.03758785
C           0.97098269      1.12342766      2.58515958
H           0.19712576      1.35257525      3.35069494
H           1.54695969      2.05268536      2.36086139
O           1.84906582      0.19983240      3.23947147
H           2.48864922     -0.19100857      2.57463143
C          -2.06952419      1.11820400      1.18822009
C          -2.79167592      0.09478406      0.58149732
C          -2.59108042      1.80180451      2.30294278
C          -4.04790513     -0.28099973      1.10384065
H          -2.42138348     -0.41513486     -0.30761851
C          -3.82063731      1.42777253      2.82876602
H          -2.03157290      2.63394202      2.75056311
C          -4.54334147      0.37538834      2.24669194
H          -4.22496217      1.93591502      3.71112694
O          -5.70861731     -0.10473495      2.85841012
O          -4.61299661     -1.31705540      0.40535216
C          -6.78849045      0.86589318      2.95192809
H          -7.03485344      1.24793480      1.95727440
H          -7.60854754      0.26569341      3.36217624
H          -6.51104768      1.68162836      3.62636126
C          -5.95679978     -1.73210819      0.75638191
H          -6.11755645     -2.56829096      0.06557774
H          -5.99313937     -2.05640080      1.80268925
H          -6.65955832     -0.91549468      0.57338116
C           3.31205385      5.10970312      2.53676359
H           4.25623674      5.67732317      2.61671288
H           2.90274023      5.22036434      1.51024030
C           3.53958915      3.59065898      2.78715661
H           2.60850072      3.04553840      2.45024988
H           4.36948733      3.22835998      2.14701836
C           4.27660935      1.78533091      4.29382577
H           4.55397256      1.47933761      5.31422870
H           3.45662163      1.08978716      3.96796362
H           5.13628770      1.60365611      3.63145338
C           2.54818126      3.34792402      5.07208721
H           2.72786938      3.13802624      6.13260014
H           2.12467488      4.38667717      4.96882692
H           1.74342926      2.67723522      4.70768756
C           4.86881734      4.12575296      4.82330355
H           5.14884598      3.82150067      5.84349883
H           5.77657342      4.13760180      4.20119070
H           4.48281132      5.17028117      4.87977099
N           3.80413175      3.22155337      4.24105073
O           2.44138178      5.66067442      3.47274818
H           1.37780837      5.23674022      3.27932073
Cl          0.19616599      4.14762765      2.97775723
C          -6.05536365      0.83434851      6.75230049
H          -6.23263182      0.08028552      7.55002806
H          -6.90970869      0.82390554      6.05386506
C          -4.71532756      0.60524009      6.03100844
H          -4.57951835      1.37124585      5.22545365
C          -3.47911257      0.58266665      6.95561523
H          -3.12153511     -0.46193891      7.09381547
H          -2.66062892      1.20314185      6.54084771
O          -4.74352731     -0.70306966      5.42298016
H          -5.11889745     -0.63773109      4.49316707
O          -6.07115986      2.14321450      7.31660333
H          -5.28060753      2.21998846      7.93719523
O          -3.76849923      1.18560887      8.21962000
H          -3.97414915      0.47550935      8.90786759
C          -5.36320882     -1.65931727      9.16315797
H          -5.93962913     -2.30474291      9.84428536
H          -6.04201231     -0.89220726      8.72481487
C          -4.60808908     -2.43954624      8.07046128
H          -3.77848812     -1.80698628      7.65121292
C          -4.04103254     -3.76896925      8.59709539
H          -4.83399498     -4.48576563      8.85798309
H          -3.34677523     -4.23090318      7.87151062
O          -5.53375335     -2.76773086      7.03794334
H          -5.42786983     -2.09490613      6.29066708
O          -4.41001569     -0.90156144      9.93059726
H          -3.66563425     -1.51975679     10.19121885
O          -3.24299229     -3.41805167      9.75223023
H          -3.50923533     -3.95421905     10.52380103
          96
 Energy =     -0.97589935 a.u.  #Cluster:   23
C           3.63939259      2.34274506     -0.92734374
C           2.82837576      1.21912936     -0.76229644
C           2.65448116      0.68854792      0.52266951
C           3.26958228      1.30806118      1.63343765
C           4.09923923      2.42043531      1.45812460
C           4.27792214      2.93394717      0.17073892
H           3.77620306      2.75986250     -1.92624803
H           2.31943881      0.75551765     -1.61480844
H           4.59525453      2.86779056      2.31403690
H           4.92587064      3.79524077      0.01964661
O           2.95453822      0.84718677      2.91305267
O           2.01374444     -0.51505477      0.71636404
C           4.04186890      0.14455176      3.57246310
H           4.91998952      0.78820755      3.65562121
H           3.61353199     -0.08113743      4.55601283
H           4.27098183     -0.77203248      3.01764040
C           0.54771869     -0.54680811      0.79570018
H           0.18464882     -0.71283963     -0.25005814
C          -0.04856839      0.74165709      1.40465436
H           0.50621189      0.98072987      2.35962184
O           0.19192607      1.85304390      0.58789870
H          -0.03032405      1.66462714     -0.56808093
C           0.37477797     -1.76442097      1.71806024
H           0.98508584     -2.61704749      1.36474633
H          -0.68344504     -2.07329666      1.82740768
O           0.79874612     -1.43363472      3.05158188
H           1.60702232     -0.85789512      2.99393232
C          -1.53342200      0.60395289      1.68699429
C          -2.46942021      1.02770124      0.73448820
C          -1.96174253      0.10359502      2.92063101
C          -3.83275586      0.96954850      1.02130730
H          -2.11891005      1.40917813     -0.22954626
C          -3.32373764      0.04515881      3.22185272
H          -1.22946537     -0.26667584      3.64471899
C          -4.26856826      0.48515834      2.28435333
H          -3.67251395     -0.34533767      4.17651658
O          -5.56238595      0.41791748      2.75317091
O          -4.82553857      1.38366114      0.15174170
C          -6.63493480      0.60967764      1.79721385
H          -6.60524491      1.63337661      1.40600935
H          -6.55255995     -0.11957693      0.98519486
H          -7.52288692      0.43689416      2.41380258
C          -4.44800288      1.52630775     -1.24420266
H          -5.41317270      1.72147353     -1.72079925
H          -3.76394463      2.37090066     -1.36379951
H          -3.99691014      0.59254383     -1.61901748
C          -0.21081554      6.02974795      4.11511168
H          -0.26681363      5.09580439      4.71545260
H           0.20967615      6.83843589      4.73915566
C           0.61157027      5.86725468      2.82927677
H           0.27544694      6.63860743      2.08308996
H           1.68179759      6.09982632      3.03226166
C           1.36818399      4.44861364      0.95566756
H           1.33426163      3.41220484      0.49665782
H           1.00195155      5.13329441      0.17621304
H           2.42383598      4.66495851      1.16939805
C          -0.91851204      4.17565497      1.80821097
H          -0.95610814      3.17795419      1.26217973
H          -1.58806951      4.10605565      2.68021625
H          -1.32763344      4.92266989      1.10725793
C           1.00840268      3.44541054      3.17617632
H           1.00376221      2.42038302      2.70547276
H           2.04988220      3.62905896      3.47908715
H           0.37010072      3.38096314      4.07163616
N           0.50608683      4.48139448      2.19705118
O          -1.57500717      6.31301251      3.79268867
H          -1.78779089      7.30470870      3.89624513
Cl         -0.21691160      1.53280289     -2.11370085
C          -2.75299914     -2.07615180     -0.78006428
H          -3.76883385     -2.10412146     -1.21525560
H          -2.78096537     -1.50708577      0.16879951
C          -1.75255182     -1.46721501     -1.78454120
H          -0.93244618     -0.91042709     -1.25498719
C          -1.12423137     -2.48788431     -2.75144734
H          -0.80317331     -1.99781517     -3.68758858
H          -0.27040547     -3.02141774     -2.29177886
O          -2.54266558     -0.54050596     -2.54600281
H          -1.97539203      0.22112643     -2.84915660
O          -2.35838225     -3.38710956     -0.37646921
H          -2.32544636     -3.97525339     -1.18235121
O          -2.03553537     -3.55730555     -3.06718462
H          -2.83174450     -3.18537045     -3.50848922
C          -0.99872247      9.81777701      1.82097906
H          -0.57405712     10.59287974      2.48750319
H          -1.05925022     10.22241237      0.79050242
C          -2.37949997      9.33371563      2.29543664
H          -3.11454206     10.17666383      2.26953736
C          -2.93090357      8.13875657      1.49424514
H          -3.82591704      7.71516983      1.99010981
H          -3.18001525      8.44114856      0.45711380
O          -2.34219397      8.89583475      3.67825100
H          -1.75384752      9.47961522      4.20572250
O          -0.01991466      8.78081130      1.84527383
H          -0.41472151      7.95839401      1.39533786
O          -1.94937603      7.11036294      1.32143832
H          -1.92912199      6.51056228      2.15447714
          96
 Energy =     -0.97474885 a.u.  #Cluster:   24
C           2.90080370      1.88772515     -1.17995661
C           1.84377922      0.98078345     -1.08645378
C           1.91865121     -0.07417255     -0.17065116
C           3.07227753     -0.22581426      0.63310058
C           4.13421887      0.67920203      0.52595082
C           4.03700539      1.73996066     -0.37595003
H           2.84344340      2.70587430     -1.89683059
H           0.96591441      1.05932089     -1.74215600
H           5.01858478      0.56571884      1.16633038
H           4.85934799      2.45209977     -0.45462702
O           3.05926276     -1.23595968      1.58619123
O           0.95070140     -1.06827444     -0.12962242
C           4.25077285     -2.07654763      1.60761763
H           5.07107196     -1.51646679      2.08396860
H           3.93184892     -2.92061998      2.22651658
H           4.50791246     -2.39789244      0.59600759
C          -0.33845091     -0.78500142      0.46431196
H          -0.85260116     -1.73736675      0.18234213
C          -1.05647166      0.46032695     -0.11005772
H          -0.47606808      1.38889203      0.12511713
O          -1.06352896      0.45969858     -1.52742384
H          -1.54630146     -0.34743778     -1.89998882
C          -0.17488036     -0.66323058      1.98866381
H          -1.14583894     -0.68980982      2.51379978
H           0.38659002      0.25489352      2.26683576
O           0.52956589     -1.80384492      2.48921388
H           1.35183312     -1.93730618      1.91692724
C          -2.47998400      0.56195444      0.40837709
C          -3.36536871     -0.51956029      0.27699186
C          -2.93436629      1.77001638      0.95032760
C          -4.69843456     -0.35244695      0.63364859
H          -3.03254614     -1.47844346     -0.13628870
C          -4.26861410      1.93413129      1.34234123
H          -2.24442482      2.61038218      1.06107220
C          -5.16331852      0.87601832      1.17049050
H          -4.59838071      2.88305921      1.75630160
O          -6.50441302      0.87156634      1.46781638
O          -5.59531951     -1.37033684      0.29999665
C          -7.13355324      2.14078655      1.77705079
H          -7.00020772      2.84126239      0.94629932
H          -8.18642369      1.84534802      1.87797465
H          -6.74229972      2.53761746      2.71732516
C          -6.28403806     -1.99332252      1.42626656
H          -7.03850273     -2.62088947      0.92271434
H          -5.56586786     -2.58634873      1.99668842
H          -6.76723059     -1.22823553      2.04354589
C           2.53290148      1.53548621      3.43184284
H           3.29050284      2.31688227      3.62603874
H           3.02751011      0.64650318      2.97708795
C           1.69549146      1.18112008      4.66805168
H           1.56389715      2.08350493      5.30461039
H           0.67457885      0.88449926      4.32069487
C           1.32967922     -0.26054437      6.62723456
H           1.72171618     -1.07154034      7.26544329
H           1.17029786      0.61477776      7.27695332
H           0.35302292     -0.58816224      6.23543550
C           3.60771166      0.48253187      6.07246357
H           4.05946476     -0.24098104      6.74779506
H           4.48028786      0.54751357      5.15233936
H           3.60931303      1.47431421      6.51436234
C           2.48417612     -1.18533556      4.66786429
H           2.91776470     -2.01080198      5.24880808
H           1.53126859     -1.52125141      4.20036508
H           3.19177980     -0.98727517      3.82059671
N           2.30523817      0.05745591      5.50514412
O           1.54528015      2.04601350      2.50619612
H           1.97097465      2.17908659      1.62665172
Cl          5.46140709      0.50941122      3.83043107
C          -3.78348967     -1.03706692     -3.05538250
H          -4.23731926     -0.41184050     -2.26340187
H          -3.44510065     -0.38190053     -3.88134896
C          -4.76772701     -2.11318581     -3.55329759
H          -4.47961891     -2.47482953     -4.57086367
C          -4.94096377     -3.32313125     -2.60513941
H          -6.01756554     -3.52224485     -2.41877871
H          -4.46470296     -4.23218295     -3.02131051
O          -6.03952750     -1.51611955     -3.78694447
H          -6.34261061     -0.96078810     -2.99777984
O          -2.56825954     -1.61786773     -2.56302252
H          -2.80414298     -2.33107612     -1.88669473
O          -4.26658187     -3.15587283     -1.35030573
H          -4.80924236     -2.58137300     -0.73619271
C          -8.55869318     -0.52470236     -1.70098062
H          -8.95768467     -0.54366840     -0.67252500
H          -9.01254745      0.31273096     -2.26299466
C          -8.77117053     -1.86362887     -2.43352265
H          -8.17650551     -1.88967810     -3.38334644
C          -8.45671549     -3.10633271     -1.58658125
H          -9.01224253     -3.98429035     -1.97049102
H          -7.36342343     -3.31948889     -1.57954695
O         -10.17484809     -1.97706513     -2.73615586
H         -10.39266951     -1.47480852     -3.54639318
O          -7.15777558     -0.21757928     -1.67908180
H          -6.74841094     -0.54104615     -0.82175154
O          -8.77074784     -2.92236073     -0.20209582
H          -9.73947822     -2.78324023     -0.09647355
          96
 Energy =     -0.97291221 a.u.  #Cluster:   25
C           4.02918333      2.37235350      0.87393307
C           2.98190928      2.10050382     -0.00382064
C           2.87600228      0.83104902     -0.58747087
C           3.83955336     -0.16384775     -0.31397822
C           4.89160318      0.12380179      0.57985164
C           4.97527309      1.38082679      1.17052684
H           4.10894397      3.35728013      1.33095557
H           2.24511010      2.87637440     -0.23457349
H           5.62271848     -0.65568951      0.79171890
H           5.78720629      1.59850053      1.86406392
O           3.82379132     -1.46778427     -0.73743894
O           1.86827793      0.60695033     -1.53261848
C           3.40628152     -1.75366330     -2.10321823
H           4.26420662     -1.58422140     -2.75621003
H           3.13078288     -2.81589387     -2.04373549
H           2.53830023     -1.16052322     -2.41408128
C           0.56431320      0.15886565     -1.04834876
H           0.14247001     -0.23970410     -2.01051765
C          -0.16638800      1.44939416     -0.60427588
H           0.17496608      1.78715431      0.40472126
O           0.23125374      2.50173597     -1.52794317
H           1.03772550      2.19138060     -2.05294848
C           0.63491145     -0.96012488      0.00295716
H           0.28807462     -0.64263390      1.00169245
H           1.66637267     -1.36240916      0.09305188
O          -0.22765481     -2.00258442     -0.39854219
H           0.16791221     -2.45868488     -1.38145222
C          -1.67488462      1.40831206     -0.65020030
C          -2.38538027      0.30333814     -0.16176864
C          -2.37269910      2.52338612     -1.13561255
C          -3.77966809      0.31268586     -0.19747197
H          -1.86626979     -0.58463438      0.22225676
C          -3.76951988      2.54875869     -1.15510302
H          -1.81543660      3.39103689     -1.50637471
C          -4.48450030      1.44284270     -0.68605826
H          -4.28603700      3.43501129     -1.51847610
O          -5.85700452      1.33220607     -0.64584399
O          -4.41134914     -0.88316323      0.13369185
C          -6.62216849      2.31966795     -1.38625633
H          -6.34459597      2.28038102     -2.45009759
H          -7.64871536      1.96879890     -1.23092682
H          -6.47534776      3.31386376     -0.95578064
C          -5.46166735     -0.78029510      1.13257745
H          -5.78399862     -1.81998915      1.24259848
H          -5.04981948     -0.38035039      2.06285298
H          -6.27832421     -0.15021043      0.75686998
C          -1.93080017     -5.08460297     -3.19913799
H          -2.76576631     -5.73977169     -3.50694834
H          -1.91703649     -4.15429861     -3.80652544
C          -1.95287781     -4.78054654     -1.68543180
H          -2.18143619     -5.70725598     -1.11901372
H          -0.91152513     -4.48595838     -1.37398957
C          -2.72871874     -3.40865334      0.19608824
H          -3.38381313     -2.58207296      0.54219586
H          -2.92739613     -4.29750565      0.80555228
H          -1.67768493     -3.06378428      0.40057163
C          -4.34251891     -4.10249991     -1.53872242
H          -5.06298026     -3.34980179     -1.15770099
H          -4.55571793     -4.16268595     -2.62562478
H          -4.57305745     -5.07185146     -1.07714368
C          -2.64188655     -2.39987284     -2.04718383
H          -1.71115323     -1.89821154     -1.66312945
H          -2.45996582     -2.59256208     -3.12105135
H          -3.47944613     -1.68348362     -1.94088127
N          -2.91613529     -3.67222303     -1.28187467
O          -0.77231780     -5.86066516     -3.46335666
H           0.03771783     -5.27178398     -3.48532762
Cl          0.44277018     -2.93475684     -2.91408061
C          -1.06236252      6.67558298     -1.02663548
H          -1.40916452      5.99669200     -1.82575852
H          -1.67368108      7.59425171     -1.03895410
C           0.44435708      6.98058340     -1.14427816
H           0.79107821      7.57075201     -0.26889480
C           1.30075535      5.71191113     -1.33195560
H           1.15517279      5.27848294     -2.33575329
H           2.37299815      5.92876079     -1.17254202
O           0.67041602      7.71618133     -2.36069201
H           0.48392521      8.66468013     -2.22851074
O          -1.33421650      6.08569174      0.24599373
H          -0.64997954      5.36540183      0.40832593
O           0.92574713      4.77865076     -0.30615531
H           0.63453331      3.90283010     -0.73130582
C          -5.69059291     -0.94569617     -2.95543866
H          -6.66950796     -0.59549835     -2.58717814
H          -4.95926594     -0.88791493     -2.11775065
C          -5.21829277     -0.17656601     -4.20393003
H          -4.27712271     -0.61676693     -4.60698803
C          -6.29927783     -0.10304400     -5.29919352
H          -7.22635245      0.36692368     -4.93296578
H          -5.92997311      0.43973212     -6.18933732
O          -5.01439214      1.20317932     -3.86075924
H          -4.14357775      1.32152502     -3.41244858
O          -5.76677631     -2.34708926     -3.24680679
H          -6.21452748     -2.46399093     -4.13512733
O          -6.54453180     -1.47723437     -5.67791490
H          -7.41876006     -1.55444083     -6.10922430
          96
 Energy =     -0.97179701 a.u.  #Cluster:   26
C           3.53613398      3.18470017     -1.26576798
C           2.45216678      2.33430898     -1.02663391
C           2.34391360      1.70307206      0.21381311
C           3.31764707      1.92629643      1.21518570
C           4.41338946      2.75692328      0.95768790
C           4.51180897      3.39085357     -0.28770631
H           3.62394350      3.69235127     -2.22940599
H           1.69534446      2.14534497     -1.79490790
H           5.16645919      2.89343682      1.73277807
H           5.37035753      4.03512943     -0.49211935
O           3.18698526      1.40180106      2.49597407
O           1.37867060      0.73879975      0.45846441
C           3.41869749     -0.03717363      2.56403709
H           4.46571461     -0.23510775      2.30248668
H           3.22342490     -0.25491092      3.61921622
H           2.70777118     -0.55929281      1.91167587
C           0.03149064      1.17442781      0.77766253
H          -0.35789100      0.20423006      1.20012667
C          -0.72446771      1.54162113     -0.52935611
H          -0.22515987      2.37631443     -1.07702081
O          -0.59974662      0.45857621     -1.44093763
H          -0.88472877     -0.40112134     -1.00859187
C           0.02851579      2.27994644      1.84090292
H          -0.99070828      2.65033876      2.05974737
H           0.67263878      3.13116257      1.55874467
O           0.44835803      1.75132094      3.09907061
H           1.43383186      1.54415760      3.04901139
C          -2.18215766      1.86349834     -0.24634919
C          -3.15918533      0.88305597     -0.44810186
C          -2.54225696      3.12568589      0.25487171
C          -4.46945350      1.11476320     -0.01721674
H          -2.88024001     -0.06751857     -0.92140410
C          -3.84514781      3.36610259      0.69565808
H          -1.80519972      3.92530339      0.30453626
C          -4.79180823      2.34176391      0.61374496
H          -4.11647982      4.33453449      1.10783951
O          -6.04673315      2.39384733      1.21305708
O          -5.51245257      0.22633428     -0.07276005
C          -6.81166875      3.60447235      0.97001480
H          -6.88154821      3.79240863     -0.10547263
H          -7.79022259      3.34528247      1.39359606
H          -6.35746870      4.44470132      1.50181526
C          -5.27725823     -1.04522805     -0.74292618
H          -6.23451323     -1.55430522     -0.58374440
H          -5.08158339     -0.87284962     -1.80380303
H          -4.44845820     -1.59091143     -0.26753886
C          -4.54628839      2.19154107      4.49486142
H          -4.55903747      2.84367313      5.39311466
H          -3.86343302      2.61987071      3.73697447
C          -4.14903115      0.76061953      4.90658730
H          -3.32108451      0.81096731      5.65018114
H          -5.02462654      0.29251398      5.41554805
C          -3.17428690     -1.43249338      4.27682988
H          -2.84756792     -2.08185747      3.42100269
H          -2.27830633     -1.28605133      4.90012938
H          -3.93278813     -1.98699436      4.84528772
C          -2.61811261      0.55405341      2.96364192
H          -2.26623549     -0.15287898      2.09788443
H          -2.95207062      1.47687033      2.47579099
H          -1.71495098      0.75572684      3.56174972
C          -4.88623097     -0.42272487      2.84517143
H          -4.55451664     -0.99078493      1.94239095
H          -5.65539406     -1.01478192      3.36109901
H          -5.37526247      0.49814862      2.46743261
N          -3.70751362     -0.11978526      3.74027701
O          -5.89188545      2.21625127      4.03869420
H          -5.93391725      2.15137486      3.03659901
Cl         -2.12262722     -1.66353208      0.95191599
C           7.82150095      0.92123067     -0.97328485
H           6.86695943      0.60661294     -1.44771436
H           8.56651323      1.17768567     -1.74839700
C           8.33953766     -0.16638083     -0.00977698
H           9.38954055      0.03624599      0.29776085
C           7.44139695     -0.38541834      1.22276227
H           7.21408570     -1.46335211      1.35728620
H           7.91390110      0.00620261      2.14579298
O           8.34332426     -1.45336620     -0.67398232
H           8.68143524     -1.38646507     -1.58787395
O           7.62510244      2.14335757     -0.26656569
H           6.93410563      1.98071873      0.44691748
O           6.22325901      0.35983475      1.14409779
H           5.67851322      0.08105130      0.33196690
C           5.04290536     -1.90187494     -2.74113514
H           6.04757019     -1.44726607     -2.81141297
H           4.43658264     -1.57957735     -3.60812520
C           4.37760362     -1.51171072     -1.40391997
H           3.26899587     -1.52344400     -1.47818408
C           4.84337090     -2.34032920     -0.19469746
H           4.96480961     -1.69371595      0.69731458
H           4.12923006     -3.15915427      0.03146893
O           4.81858912     -0.14811118     -1.16184669
H           4.05686092      0.47382412     -1.20654407
O           5.13400073     -3.31279393     -2.89176063
H           5.64748840     -3.69212287     -2.11603394
O           6.06072076     -3.04345738     -0.44680007
H           6.83340765     -2.40479812     -0.52788604
          96
 Energy =     -0.96945872 a.u.  #Cluster:   27
C           1.93473787      2.46016672      0.93060140
C           1.10024440      1.48152166      0.38268668
C           1.26753957      0.14722282      0.76309411
C           2.28034969     -0.20173784      1.68729725
C           3.11444161      0.77876309      2.22733279
C           2.93105081      2.11252638      1.84856456
H           1.80992276      3.50099660      0.63422437
H           0.32995399      1.73965278     -0.34926351
H           3.89898246      0.51000343      2.94432175
H           3.58091523      2.87935600      2.27072144
O           2.42462492     -1.50813634      2.16043993
O           0.54369008     -0.89182727      0.20755610
C           2.67080355     -2.50367321      1.11601573
H           3.55360668     -2.22239652      0.52977008
H           2.86847924     -3.41845752      1.69484827
H           1.78002362     -2.59873683      0.48032918
C          -0.88563603     -0.96353255      0.48552924
H          -1.06780974     -2.03779985      0.19246264
C          -1.64620605     -0.03748388     -0.50580011
H          -0.94876299      0.74223894     -0.91622662
O          -1.99714630     -0.78833877     -1.64031166
H          -2.57071128     -1.65652493     -1.37860877
C          -1.14696193     -0.75840690      1.98067613
H          -2.22497622     -0.79810377      2.21581281
H          -0.72599093      0.19132471      2.36063338
O          -0.60207072     -1.84279491      2.73930148
H           0.38377478     -1.88373480      2.59472355
C          -2.87157370      0.63651358      0.09825046
C          -4.13454394      0.25402806     -0.36803621
C          -2.76420688      1.63026531      1.08133453
C          -5.28646918      0.78283053      0.21073150
H          -4.18880766     -0.46825224     -1.19765143
C          -3.91265627      2.20891472      1.62678354
H          -1.78448257      1.97191769      1.41671597
C          -5.17676877      1.77951186      1.20804577
H          -3.84647932      2.99405148      2.38014755
O          -6.25613814      2.33434819      1.89196047
O          -6.57225625      0.35736196     -0.08792125
C          -7.33491977      2.83127001      1.05125871
H          -7.79032942      2.00420157      0.49265654
H          -8.02585272      3.25456122      1.78923989
H          -6.94788055      3.60082779      0.37764195
C          -6.70905192     -0.55531599     -1.21195184
H          -7.79414519     -0.68827479     -1.26918980
H          -6.31525827     -0.09776294     -2.12637501
H          -6.18385816     -1.50340640     -0.99424851
C          -6.32601052     -0.56954274      3.78773759
H          -6.53167216     -1.08534028      4.74505453
H          -5.27692653     -0.21907704      3.75942626
C          -6.69058907     -1.43445814      2.56300719
H          -7.75640327     -1.74538903      2.64689355
H          -6.65805663     -0.78269870      1.64412429
C          -6.21341726     -3.31727018      1.05738528
H          -5.52889362     -4.15433011      0.79146437
H          -7.24345247     -3.69170086      1.08923249
H          -6.10888569     -2.61478341      0.18940621
C          -5.98600849     -3.63187294      3.48929642
H          -5.37804982     -4.54234497      3.32600774
H          -5.67148124     -3.19858432      4.45470055
H          -7.03800259     -3.94590761      3.59014893
C          -4.34996230     -2.24643033      2.28086466
H          -3.69876278     -3.09328649      1.95741065
H          -4.18427525     -1.47408916      1.49407452
H          -3.96863740     -1.87079314      3.24078396
N          -5.80212474     -2.64966495      2.35089087
O          -7.21638664      0.53304176      3.79906270
H          -6.93568384      1.21233250      3.10648562
Cl         -3.68918046     -2.89563680     -0.64805426
C           5.88582358     -0.81654415      0.82195025
H           5.88222010      0.00184215      0.08186281
H           4.84022098     -1.03342475      1.11762137
C           6.79831450     -0.53417653      2.02999844
H           6.98495234     -1.48735747      2.59474944
C           8.13499890      0.10065979      1.61163455
H           7.99696254      1.04591331      1.06440937
H           8.79510409      0.26491495      2.48255430
O           6.18125040      0.41660394      2.89446230
H           5.47026376     -0.06045496      3.44628592
O           6.32924911     -2.02282676      0.17730496
H           7.32678981     -1.98549439      0.09304212
O           8.76172247     -0.89932886      0.77220839
H           9.26902962     -0.47105360      0.05540257
C           5.32011498     -2.57846777      4.24080272
H           6.28232377     -2.35356894      3.72877120
H           5.50167497     -2.61763629      5.33325555
C           4.66438098     -3.86697770      3.72700278
H           3.63366867     -3.65713646      3.33863240
C           5.47917119     -4.60736739      2.64322895
H           6.56609541     -4.48554859      2.75729786
H           5.22962800     -5.69014071      2.66486125
O           4.59361448     -4.81520176      4.80361994
H           3.89536371     -4.56010222      5.44071729
O           4.49081987     -1.41912160      4.05554279
H           3.74057147     -1.59392734      3.40820457
O           5.02895968     -4.15669637      1.37150737
H           5.61697534     -3.42878891      1.00689198
          96
 Energy =     -0.96638551 a.u.  #Cluster:   28
C           3.86332730      2.96763635     -1.32845269
C           2.98766476      1.88458827     -1.28817121
C           3.09959585      0.93830055     -0.25998947
C           4.11569348      1.05646689      0.71304830
C           4.98174284      2.16674520      0.67241334
C           4.84754137      3.11296102     -0.34032674
H           3.78140902      3.70313565     -2.12619256
H           2.20755432      1.74749541     -2.04485363
H           5.75563475      2.25982432      1.43515354
H           5.52586513      3.96627269     -0.37206239
O           4.33692122      0.21838879      1.78129290
O           2.27387912     -0.18086579     -0.31353595
C           4.19897174     -1.21540448      1.56456172
H           5.02990525     -1.56439473      0.94379060
H           4.25779644     -1.60190686      2.59383011
H           3.23216466     -1.46891051      1.11630781
C           0.98258318     -0.09971333      0.34382622
H           0.62678434     -1.15124356      0.15011841
C           0.07413162      0.93966267     -0.36030659
H           0.54492612      1.95412538     -0.35416238
O          -0.01309092      0.67087196     -1.75983676
H          -0.35485193     -0.23681363     -1.92156615
C           1.09111182      0.14974747      1.85651873
H           0.53993537      1.05207716      2.18850926
H           2.14301383      0.25681396      2.18684491
O           0.49750487     -0.95219371      2.52400994
H           1.34083971     -1.61052626      3.15807465
C          -1.31013826      0.96745048      0.26394545
C          -2.12589879     -0.15856958      0.23288160
C          -1.75259210      2.14644182      0.89625846
C          -3.40521759     -0.11845386      0.82894170
H          -1.79348089     -1.10839013     -0.20681838
C          -3.00584222      2.18993661      1.49593422
H          -1.11049083      3.02628005      0.92121979
C          -3.83455461      1.05684325      1.47464103
H          -3.35822781      3.09123157      1.99504414
O          -5.02587856      1.08681818      2.20240623
O          -4.06838259     -1.30813056      0.69408000
C          -6.12276308      1.72147013      1.49074121
H          -6.34559311      1.16632046      0.57497288
H          -6.94267456      1.65408587      2.21303698
H          -5.87445067      2.76264063      1.26828822
C          -5.23819421     -1.58087803      1.50670688
H          -6.12021012     -1.27512062      0.93954052
H          -5.17928972     -2.67951129      1.61907540
H          -5.19793656     -1.07702801      2.47452525
C           0.31174749      0.56176712      5.26178078
H           1.16353710      0.53691394      5.95995823
H           0.51749807     -0.16299600      4.42300179
C          -1.02721138      0.29523581      5.97759816
H          -0.85394614     -0.00757805      7.03199249
H          -1.60087940      1.25335629      5.99957587
C          -3.25126847     -0.78863007      5.93628086
H          -3.88707712     -1.57922929      5.49358307
H          -3.19199526     -0.97952792      7.01968770
H          -3.78049507      0.16827755      5.78106936
C          -1.24304977     -2.12805064      5.46979936
H          -1.80484681     -2.93573530      4.94494434
H          -0.21886528     -2.15969601      5.02487317
H          -1.14297110     -2.41009964      6.52660868
C          -2.03921913     -0.46602270      3.82843470
H          -2.60775396     -1.25249124      3.28992287
H          -2.51479529      0.51042163      3.64804378
H          -1.02682448     -0.42500414      3.29947164
N          -1.87961784     -0.77405196      5.28919583
O           0.21320621      1.81986320      4.59495133
H           0.59869626      2.53895854      5.13307117
Cl          2.07851280     -2.38947760      4.21849539
C           7.12030520     -0.35664132     -0.48424530
H           7.42732812     -1.39849629     -0.27956754
H           6.69976887      0.09045842      0.43776305
C           6.11087544     -0.30565048     -1.65182084
H           5.52854259      0.64233660     -1.63735404
C           6.74710940     -0.50539139     -3.04144058
H           6.11073745     -1.15637981     -3.66928155
H           6.92585358      0.46132879     -3.54946763
O           5.22915574     -1.42651723     -1.44840234
H           4.31514352     -1.12297652     -1.23784619
O           8.26700472      0.44594184     -0.75936224
H           8.71294512      0.09405442     -1.58055596
O           8.06959308     -1.06562152     -2.96158521
H           8.01498571     -1.99989713     -2.65945410
C          -2.71491671     -4.03219479      1.02542968
H          -2.32522002     -4.90837170      0.48322081
H          -3.18366921     -3.32555426      0.31026135
C          -1.64855441     -3.33129920      1.88518519
H          -2.15225439     -2.57799054      2.54555104
C          -0.83993179     -4.32189468      2.74836364
H          -0.55323390     -5.23179583      2.19901302
H           0.06860022     -3.85304845      3.17450450
O          -0.75754822     -2.67843774      1.00161213
H          -0.18181797     -1.97562885      1.54660506
O          -3.79900169     -4.45259235      1.87405551
H          -3.42276128     -4.84233085      2.70486540
O          -1.74109359     -4.66965288      3.83511139
H          -1.40226844     -5.45468608      4.30772881
          96
 Energy =     -0.96455046 a.u.  #Cluster:   29
C           3.51727512      2.04692612      0.74533003
C           2.44206632      1.28965757      0.27532774
C           2.15551372      0.06358812      0.88424904
C           2.97338134     -0.41428288      1.92977771
C           4.05334546      0.34532280      2.39288771
C           4.30723878      1.58726448      1.80498284
H           3.75357913      3.01295287      0.26694131
H           1.84973454      1.62336366     -0.58496811
H           4.67024533     -0.04015083      3.20235044
H           5.13836809      2.19429627      2.16324677
O           2.70696868     -1.62418579      2.58212863
O           1.17037301     -0.78151475      0.38888357
C           3.10360720     -2.79128403      1.79869415
H           4.17420143     -2.74386492      1.58825448
H           2.85994632     -3.62486430      2.46598019
H           2.50750859     -2.83520071      0.87733685
C          -0.22692610     -0.47787468      0.65510465
H          -0.69343149     -1.37965202      0.17618683
C          -0.69431476      0.78387635     -0.12565308
H          -0.08458503      1.67939190      0.13519244
O          -0.52627160      0.44834423     -1.46649532
H          -0.07188036      1.37826488     -2.14272861
C          -0.46929124     -0.54695612      2.16364826
H          -1.54564049     -0.53288779      2.42178058
H           0.06454036      0.23445081      2.72930122
O          -0.02677104     -1.84878401      2.58815860
H           0.97192155     -1.80699724      2.76595942
C          -2.17150786      1.04771772      0.15019353
C          -3.10679659      0.69061679     -0.81776196
C          -2.59464035      1.60759952      1.37090259
C          -4.48266392      0.80136801     -0.54675781
H          -2.77100586      0.33278851     -1.79837812
C          -3.95230587      1.72672307      1.64787991
H          -1.86278420      1.95394059      2.09953089
C          -4.89726733      1.29571272      0.70380974
H          -4.29813111      2.13740563      2.59559622
O          -6.24418381      1.22741190      1.07404678
O          -5.28377303      0.41839571     -1.59942931
C          -6.94133928      2.50102344      1.05526739
H          -6.93307166      2.90596224      0.03794935
H          -7.95169635      2.22137144      1.37349831
H          -6.48343245      3.20220504      1.75873815
C          -6.55480480     -0.19843648     -1.27827572
H          -6.92341590     -0.48604881     -2.26954526
H          -6.38685635     -1.07815792     -0.63748742
H          -7.22043387      0.51907448     -0.78854551
C          -0.76583836     -4.17849375     -0.12222083
H          -1.62053955     -3.50638045      0.12703262
H          -0.99468054     -5.20204215      0.23827203
C          -0.47032455     -4.23980314     -1.63458244
H           0.52098884     -4.73578118     -1.77042704
H          -1.23522760     -4.88402245     -2.11992611
C          -0.38649268     -3.11889849     -3.84119087
H          -0.32594750     -2.14836866     -4.37784051
H           0.49709678     -3.71019170     -4.13125309
H          -1.28505601     -3.64054385     -4.20624830
C           0.80567527     -2.12502965     -1.94256629
H           0.61111478     -1.00486711     -1.87355684
H           1.14775954     -2.40474345     -0.91838886
H           1.64701800     -2.27376166     -2.62694561
C          -1.68332972     -2.09343692     -2.03809917
H          -1.52770023     -0.98930416     -2.24264503
H          -2.55912048     -2.44082062     -2.59837481
H          -1.95012116     -2.12487153     -0.95425717
N          -0.43557027     -2.88226924     -2.34183823
O           0.41493367     -3.77104713      0.56124786
H           0.20567750     -3.01144046      1.21693188
Cl          0.63687532      2.42425882     -2.96975179
C           2.69289462      4.72474042     -1.57980811
H           2.72256974      5.56664482     -2.29422290
H           2.84907162      3.77567408     -2.13208479
C           1.35979109      4.72158711     -0.79966624
H           1.03152122      3.68040159     -0.57195085
C           1.37254582      5.56098701      0.49050752
H           0.36168885      5.95586493      0.70345898
H           1.75201160      4.98172108      1.35294252
O           0.36146382      5.35157516     -1.61995266
H           0.08211192      4.73743041     -2.34797541
O           3.82431141      4.79828195     -0.70596940
H           3.75337968      5.62850728     -0.15459454
O           2.29628447      6.66430705      0.41315805
H           2.00793499      7.27754922     -0.30159579
C          -3.83512586     -2.04421603      1.58086749
H          -3.37681381     -2.52101809      2.46544307
H          -3.37793385     -1.05020218      1.41427461
C          -5.36972781     -1.95320053      1.68666840
H          -5.80153821     -1.57150402      0.72380795
C          -6.02087746     -3.29550743      2.06937890
H          -5.59491118     -3.71433386      2.99598741
H          -7.11582219     -3.19502391      2.17376878
O          -5.69636701     -1.08156388      2.77255682
H          -5.96597681     -0.18841265      2.42107068
O          -3.47617984     -2.80583259      0.41392001
H          -4.12657938     -3.56027529      0.31447722
O          -5.75352133     -4.17369211      0.94771181
H          -5.82450458     -5.10572797      1.23165926
          96
 Energy =     -0.96197292 a.u.  #Cluster:   30
C           2.89332440      2.23737029     -0.51961094
C           1.77299623      1.42604577     -0.72549005
C           1.68213325      0.20677081     -0.05129858
C           2.72631104     -0.20346731      0.80773406
C           3.84784175      0.60487673      1.00517895
C           3.91763525      1.83555976      0.34400440
H           2.96170162      3.19226141     -1.04469877
H           0.98091927      1.73978131     -1.41537031
H           4.63872014      0.27343701      1.67715165
H           4.78118933      2.48161888      0.50286213
O           2.63506805     -1.37138048      1.56937864
O           0.64385344     -0.69037885     -0.27481932
C           2.65433571     -2.59710349      0.78207807
H           3.59966617     -2.66764686      0.23946420
H           2.58038293     -3.37046472      1.55644567
H           1.79394011     -2.61506880      0.10273831
C          -0.65494555     -0.40159615      0.32343943
H          -1.13930553     -1.39299218      0.15668682
C          -1.37290849      0.71311345     -0.48791660
H          -0.82312117      1.68098718     -0.39173060
O          -1.35766529      0.29712244     -1.81681229
H          -1.03722413      1.22408335     -2.57759692
C          -0.54209726     -0.08280282      1.81928869
H          -1.54181657      0.04459159      2.28187096
H           0.07743363      0.81023824      2.01773789
O           0.01273550     -1.20755047      2.51256587
H           0.97265041     -1.33824813      2.22449332
C          -2.81780466      0.87969624     -0.03971082
C          -3.79372711      0.00433851     -0.52830250
C          -3.17714490      1.94137885      0.80484918
C          -5.13751320      0.21162878     -0.19660184
H          -3.52094619     -0.81264184     -1.19631813
C          -4.51645010      2.16768955      1.12466202
H          -2.41434464      2.61908198      1.19052184
C          -5.49548763      1.31147570      0.60884171
H          -4.81349094      3.01084188      1.75456719
O          -6.81771193      1.58115874      0.98012267
O          -6.06995488     -0.62899643     -0.79061685
C          -7.70458114      1.86927428     -0.14413041
H          -7.66906228      1.04908055     -0.87217709
H          -8.68534719      1.94188537      0.33909448
H          -7.40214548      2.81774430     -0.59836705
C          -6.82768371     -1.44099676      0.14782345
H          -7.56212907     -1.92711311     -0.50338783
H          -6.16249239     -2.17178244      0.61476194
H          -7.32161804     -0.81411353      0.90392625
C          -1.30146134     -3.41930840     -5.76467879
H          -2.21211029     -2.79978413     -5.92730856
H          -0.96624714     -3.82561496     -6.73684773
C          -0.16283488     -2.63879060     -5.09017126
H           0.58687979     -3.35349191     -4.68003854
H           0.37344564     -2.02930720     -5.85654080
C           0.59046469     -0.98217304     -3.43128948
H           0.30203234     -0.42177167     -2.47836679
H           1.40836464     -1.65917845     -3.16485644
H           0.95517946     -0.19933230     -4.11938764
C          -1.24417517     -2.49721471     -2.83591811
H          -1.59680697     -1.77689347     -2.04894029
H          -2.10447188     -3.09962768     -3.18054910
H          -0.52125693     -3.17470404     -2.36002827
C          -1.63249836     -0.72057053     -4.49491615
H          -2.03821986     -0.09120778     -3.65233522
H          -1.18038447      0.00524223     -5.19646169
H          -2.49060147     -1.21625820     -4.96995121
N          -0.62044898     -1.70976335     -3.96670561
O          -1.77579678     -4.46888946     -4.92407838
H          -1.17263919     -5.24103778     -4.94085715
Cl         -0.41035252      2.10617662     -3.64385212
C          -6.89403297      2.73523398      4.17865556
H          -5.94713865      2.16878969      4.20503365
H          -6.88702010      3.47839566      5.00014729
C          -8.14023438      1.82972910      4.25148677
H          -8.88811582      2.14086406      3.48409580
C          -7.83905856      0.32502933      4.12307200
H          -6.79711634      0.07022625      4.37895839
H          -8.53144763     -0.26484150      4.76077911
O          -8.72360426      1.95065617      5.56143406
H          -9.18617347      2.80882639      5.64729125
O          -6.93731858      3.53841068      2.99828229
H          -6.89637961      2.95810137      2.19005282
O          -8.13155745     -0.12913192      2.80084938
H          -7.58267565      0.36378739      2.12884974
C          -0.52960873     -3.66696875      6.35686657
H          -1.52589427     -3.43543045      6.76863339
H           0.24920070     -3.32739135      7.06627022
C          -0.31629042     -3.05853260      4.96059220
H           0.64730339     -3.41564384      4.53122313
C          -1.48251821     -3.32936307      3.98184225
H          -2.29409715     -2.59565801      4.11521884
H          -1.13633018     -3.29888613      2.92979451
O          -0.23903752     -1.64409416      5.17529002
H          -0.03948605     -1.19704516      4.29901239
O          -0.35842028     -5.08697571      6.29351281
H          -0.85523691     -5.43745301      5.50326870
O          -1.97415510     -4.67240585      4.16183818
H          -2.78988345     -4.65801105      4.70410481
          96
 Energy =     -0.96057124 a.u.  #Cluster:   31
C           3.80397712      2.34345124     -1.78761409
C           2.62879603      1.58757556     -1.77139308
C           2.57915956      0.42338699     -0.99988979
C           3.70880489      0.01474894     -0.25789200
C           4.88548935      0.77004771     -0.28525979
C           4.92202632      1.94044327     -1.04877563
H           3.84568408      3.25659791     -2.38431233
H           1.75747177      1.89301915     -2.35873602
H           5.74674039      0.44145850      0.29501576
H           5.83351829      2.53891347     -1.07208511
O           3.67894530     -1.08152050      0.60361798
O           1.47325734     -0.42121613     -1.03323442
C           3.49858836     -2.36186392     -0.06438122
H           4.35292266     -2.55468730     -0.71780929
H           3.47420525     -3.06078971      0.78017603
H           2.55195628     -2.36386399     -0.61720560
C           0.29677829     -0.04154295     -0.26734636
H          -0.23781828     -1.02072536     -0.28006208
C          -0.49978934      1.05945958     -1.01741541
H          -0.00621716      2.05473894     -0.91506269
O          -0.49808374      0.68507939     -2.38205981
H          -0.46710520      1.59634482     -3.02825892
C           0.62795893      0.38923874      1.17025428
H          -0.29665220      0.64648596      1.72822818
H           1.32820509      1.24381252      1.19751522
O           1.16668294     -0.70130610      1.91082791
H           2.08648669     -0.90908532      1.57271764
C          -1.93830793      1.10499272     -0.53387396
C          -2.84409657      0.15621785     -1.02176303
C          -2.36090527      2.08914616      0.36882230
C          -4.18390715      0.20063622     -0.61932087
H          -2.51457112     -0.60063959     -1.73736698
C          -3.69966137      2.14924820      0.76313264
H          -1.65605468      2.82779221      0.74998160
C          -4.61467284      1.21566234      0.26448265
H          -4.04999181      2.92189959      1.44655176
O          -5.92389353      1.28689397      0.73399054
O          -5.00812832     -0.73346455     -1.22384112
C          -6.86649702      1.80490480     -0.25169424
H          -6.82552937      1.20830339     -1.16725383
H          -7.83248711      1.68873556      0.26538693
H          -6.64102124      2.85583164     -0.44757627
C          -5.89193608     -1.46413551     -0.33150092
H          -6.52647316     -2.01345408     -1.03542671
H          -5.29302177     -2.14045638      0.28416405
H          -6.48240183     -0.78102620      0.29048614
C          -0.57105540      0.13367388     -6.36821846
H           0.45338315      0.55802396     -6.23113836
H          -0.58885266     -0.57334111     -7.21642656
C          -1.11772594     -0.48399126     -5.06684388
H          -1.25271095      0.34133696     -4.30639166
H          -2.14063826     -0.88139264     -5.24787556
C          -0.95173393     -2.11683566     -3.23919547
H          -0.30960262     -2.80058651     -2.66278758
H          -1.22092969     -1.26779501     -2.54460502
H          -1.88097201     -2.63855352     -3.50782202
C           1.09519758     -1.00896862     -4.02021916
H           1.80655314     -1.79051023     -3.72975668
H           1.56211098     -0.36394444     -4.79436967
H           0.96558542     -0.33802422     -3.11177132
C          -0.01256429     -2.68021348     -5.45198900
H           0.49703190     -3.54066258     -4.98579213
H          -0.96462438     -3.04050752     -5.87718412
H           0.62324553     -2.34419018     -6.29174602
N          -0.23512473     -1.56346934     -4.45478680
O          -1.47822294      1.15281960     -6.76530198
H          -1.34825769      1.96915756     -6.20731944
Cl         -0.12092259      2.79677029     -4.14251360
C           3.92390498      2.88984341     -5.49898402
H           3.94676858      2.46427247     -4.47596638
H           3.87598819      3.99243707     -5.44437634
C           2.72876892      2.29587242     -6.28252065
H           2.05596643      3.09831201     -6.65936601
C           3.14950158      1.35637881     -7.42513847
H           2.27335392      0.90291623     -7.91832093
H           3.79494564      1.85861069     -8.17018894
O           1.99653646      1.45835672     -5.38656956
H           1.28498061      2.05082324     -4.81815104
O           5.18505768      2.65027605     -6.12657228
H           5.28424533      1.67624341     -6.31058821
O           3.97975312      0.29592557     -6.90827241
H           3.56178887     -0.05077104     -6.08308391
C          -7.68621893      1.07976933      2.90090048
H          -7.09129938      0.25362807      2.46266707
H          -7.20677192      2.03926771      2.62262851
C          -7.81964302      0.91704561      4.42799573
H          -7.99409778      1.89772617      4.92590616
C          -8.88689858     -0.10002534      4.87153896
H          -8.53274060     -0.66782430      5.75433201
H          -9.85407695      0.39053456      5.09299677
O          -6.59307631      0.36566623      4.95059196
H          -5.82186823      0.89588239      4.66633623
O          -8.96042179      1.14236091      2.26094509
H          -9.46303248      0.30230570      2.46701241
O          -9.22959621     -1.01813898      3.81952551
H          -8.46626866     -1.61155174      3.63752177
          96
 Energy =     -0.96051902 a.u.  #Cluster:   32
C           3.61703624      2.32367219      1.33966622
C           2.54523177      1.62503468      0.77700661
C           2.69539908      0.27383467      0.45389135
C           3.93155274     -0.37144852      0.68749178
C           5.00422954      0.33244582      1.24461407
C           4.83736811      1.68103744      1.57640793
H           3.49334518      3.37425826      1.61240017
H           1.57500481      2.11429864      0.59259240
H           5.94451438     -0.18513239      1.43045520
H           5.67083685      2.23502085      2.01863979
O           4.11828464     -1.74043803      0.48691831
O           1.68344896     -0.43070938     -0.19143688
C           3.95583871     -2.17643398     -0.89247237
H           4.73366875     -1.72112818     -1.50984086
H           4.09457285     -3.26032264     -0.80854297
H           2.95034687     -1.92482777     -1.25046840
C           0.57500242     -0.92075219      0.60784549
H           0.20727522     -1.70946339     -0.09550399
C          -0.47561152      0.19489324      0.86046635
H          -0.38312429      0.57368753      1.91323747
O          -0.16503487      1.26542486     -0.00992695
H          -0.90848114      2.14745966      0.07784086
C           1.01955696     -1.55996855      1.93636125
H           0.14514378     -1.90391180      2.52479422
H           1.62639627     -0.86742284      2.54740349
O           1.75119229     -2.75990973      1.69459784
H           2.65192259     -2.53095280      1.31920348
C          -1.90760230     -0.23324061      0.58551476
C          -2.21286436     -1.18233432     -0.39932033
C          -2.94872127      0.44912364      1.22987720
C          -3.53587332     -1.35885059     -0.80681549
H          -1.43029740     -1.76998200     -0.88252140
C          -4.28319411      0.23087579      0.87873221
H          -2.71270797      1.20072841      1.99611809
C          -4.58390282     -0.65585555     -0.15971100
H          -5.07014266      0.77504449      1.39559759
O          -5.84414824     -0.91002457     -0.66016343
O          -3.69474103     -2.11609229     -1.96188581
C          -6.95096043     -0.16567654     -0.08780708
H          -6.80869632      0.90812414     -0.24579190
H          -7.80080804     -0.53921973     -0.67494498
H          -7.06953336     -0.41224478      0.97190774
C          -4.74104451     -3.12620999     -1.92445046
H          -4.61897147     -3.61995577     -2.89393087
H          -4.55920874     -3.81611470     -1.09490243
H          -5.72422188     -2.64536897     -1.83780392
C          -2.66153921     -0.31644655     -4.70298938
H          -2.81914689     -0.55695109     -5.77599215
H          -2.02065548     -1.08991453     -4.24285305
C          -2.07847074      1.10789522     -4.59296427
H          -1.28553922      1.23989620     -5.36372597
H          -2.89679956      1.83270313     -4.83417163
C          -0.79809641      2.78809402     -3.29372375
H          -0.39293328      3.06794203     -2.28727179
H           0.04791642      2.76252572     -3.99490530
H          -1.48032458      3.60752191     -3.57478458
C          -0.51731246      0.41829445     -2.76875099
H          -0.10261303      0.66920344     -1.72452729
H          -0.97036286     -0.58041218     -2.66920594
H           0.35100191      0.34862066     -3.43733170
C          -2.64968041      1.56261862     -2.22130644
H          -2.27725184      1.38516101     -1.18511687
H          -3.09947402      2.57236260     -2.20758960
H          -3.45361057      0.83189683     -2.42561352
N          -1.51355168      1.45262844     -3.21363816
O          -3.96752804     -0.32878178     -4.13237451
H          -3.99857125     -0.93130572     -3.32872338
Cl         -1.70175865      3.55200331     -0.01330985
C           7.17210311      5.38006669     -1.34412049
H           6.73506732      6.25260844     -0.82279543
H           6.51049706      5.08113332     -2.17894311
C           7.41128042      4.21602383     -0.35624908
H           7.48614643      3.24468157     -0.89373336
C           8.62768779      4.41435968      0.56808900
H           8.38119248      4.09380102      1.60044643
H           9.51456065      3.86582640      0.19743506
O           6.29605365      4.15824443      0.55282616
H           5.48746493      3.83528941      0.09749971
O           8.38455844      5.75769943     -1.99218116
H           9.03779598      6.05989667     -1.29658429
O           9.08414107      5.77687421      0.58174670
H           8.44201355      6.34054438      1.06957020
C          -0.02936139      5.23828185      4.04379252
H          -0.48970379      5.03978003      5.02854884
H           0.05159153      6.33006871      3.88965994
C          -0.79645419      4.55753745      2.89588477
H          -0.28426740      4.73748104      1.92363872
C          -0.97378537      3.04519288      3.14267441
H          -1.16241616      2.80292946      4.20224143
H          -1.78598253      2.62160207      2.52102887
O          -2.09434121      5.16384869      2.88015550
H          -2.48852413      5.06320459      1.97688766
O           1.32835402      4.77475366      4.05411027
H           1.34290869      3.79401174      3.87189933
O           0.27300007      2.38887544      2.86365408
H           0.46330556      2.41430857      1.87893959
          96
 Energy =     -0.95808650 a.u.  #Cluster:   33
C           3.37597167      2.08293731     -1.16062917
C           2.22906736      1.35986181     -0.82862703
C           2.36017293      0.10352334     -0.22705694
C           3.65837253     -0.39847982      0.04297884
C           4.80374477      0.31130730     -0.31550216
C           4.65454543      1.56956169     -0.90732061
H           3.27000792      3.04874291     -1.65689805
H           1.22966031      1.73006675     -1.10919028
H           5.78492483     -0.12350366     -0.14700365
H           5.53240050      2.12564417     -1.22069057
O           3.77888763     -1.59180179      0.76136670
O           1.35910706     -0.79756558      0.02084849
C           3.60244018     -2.79293815     -0.06037664
H           4.39026778     -2.84394782     -0.81138626
H           3.66928468     -3.59720823      0.67744203
H           2.59572933     -2.76300238     -0.52067032
C           0.17622321     -0.46294081      0.79338840
H          -0.37582326     -1.43642557      0.63044762
C          -0.64769678      0.74152660      0.27165757
H          -0.16852099      1.71389162      0.53269651
O          -0.68991403      0.73415602     -1.12665796
H          -1.09672630     -0.23367558     -1.53271423
C           0.59787639     -0.31519782      2.25976711
H          -0.26656150     -0.41916627      2.94729988
H           1.13252662      0.62874994      2.46150179
O           1.46819704     -1.40227410      2.62541997
H           2.05290600     -1.64290698      1.84075369
C          -2.04924030      0.64608772      0.85366011
C          -2.97308904     -0.22201824      0.25342806
C          -2.41912574      1.41858715      1.95553106
C          -4.26896163     -0.31549180      0.75334490
H          -2.66031631     -0.80372281     -0.62784249
C          -3.71928108      1.33454756      2.46603216
H          -1.71226466      2.10106017      2.41982294
C          -4.65240091      0.47576797      1.87251029
H          -4.02689025      1.93312976      3.32092529
O          -5.88594700      0.52228408      2.48663894
O          -5.25105495     -1.13421126      0.22580599
C          -6.94949811     -0.29014844      1.93058503
H          -6.68551634     -1.35106625      2.00057110
H          -7.79348637     -0.03579887      2.57991564
H          -7.13627543     -0.00457090      0.88946285
C          -4.84679715     -2.02430724     -0.84983969
H          -5.78733250     -2.53356894     -1.08201952
H          -4.47931651     -1.44824174     -1.70675135
H          -4.08674967     -2.72795030     -0.49169043
C           7.88211645      5.17633092      2.67370636
H           8.62453884      5.86859558      2.23153294
H           6.86553899      5.49970621      2.36232814
C           8.20428802      3.72799964      2.26786671
H           8.48094811      3.70396802      1.18681988
H           9.10504971      3.38119800      2.82748967
C           7.50190180      1.39480853      1.95664330
H           6.72402190      0.59159360      2.11473226
H           7.68134726      1.43089435      0.86997761
H           8.41138716      1.01408034      2.44858256
C           5.81593657      3.18463125      1.79539395
H           5.01574791      2.39690458      1.85656998
H           5.38152317      4.09168236      2.25288349
H           5.99029052      3.37399671      0.72298601
C           6.78864875      2.60667025      3.98937470
H           5.81169138      2.08975075      4.18850195
H           7.57352223      2.04270139      4.51451988
H           6.70870255      3.60260714      4.47850311
N           7.06706936      2.73268400      2.51137635
O           7.84783554      5.31211601      4.09054365
H           8.74922175      5.43276388      4.46381733
Cl          0.12895188     -3.33082095     -0.97611551
C          -1.84643798     -0.07395799     -4.12723659
H          -2.17401717      0.57066174     -3.28539617
H          -2.72671188     -0.42396671     -4.69084093
C          -1.00292872     -1.25267939     -3.58401829
H          -1.24638962     -2.20385727     -4.10826436
C           0.52108715     -1.00477528     -3.65510055
H           1.06255339     -1.65619826     -2.94371635
H           0.91254497     -1.15047407     -4.67693468
O          -1.41303590     -1.41544921     -2.23323902
H          -0.72162298     -2.32495658     -1.67623988
O          -1.13382701      0.72696161     -5.07333802
H          -0.28133751      1.03838843     -4.64402270
O           0.85924398      0.36459610     -3.36368840
H           0.50826153      0.59436366     -2.44159305
C           4.09408632      0.46576193      3.10587249
H           3.09363752      0.09144929      2.79903307
H           4.51472512      1.05652253      2.26806886
C           5.03498508     -0.66467767      3.56703654
H           5.79155673     -0.27563067      4.28544166
C           4.24285139     -1.83656037      4.18926040
H           3.96868151     -2.59164263      3.43028634
H           4.80861613     -2.32321804      5.00385224
O           5.83015909     -1.09580496      2.46142495
H           5.23223012     -1.48722133      1.73810432
O           3.94842422      1.40387708      4.18204915
H           3.48163729      0.92120840      4.92770116
O           3.07793498     -1.30244535      4.82058791
H           2.30916352     -1.32454300      4.15286296
          96
 Energy =     -0.95781748 a.u.  #Cluster:   34
C           3.77024656      2.98277258      0.42238577
C           2.85072043      2.12463537     -0.18065961
C           2.81100878      0.77121776      0.17257271
C           3.75708894      0.25318302      1.09263370
C           4.66861800      1.13726757      1.70919607
C           4.66523640      2.48916555      1.37969649
H           3.80942110      4.03292701      0.13280346
H           2.15122805      2.48820915     -0.94315990
H           5.37476117      0.73194567      2.43561673
H           5.37625377      3.16254260      1.85809065
O           3.86174381     -1.02730843      1.54281566
O           1.90381145     -0.05675540     -0.48315084
C           3.56184593     -2.12709497      0.63236376
H           4.47193539     -2.34090015      0.06985488
H           3.29639459     -2.93772860      1.32995277
H           2.71509971     -1.92021627     -0.03400869
C           0.56725582     -0.18529114      0.08964449
H           0.14532218     -0.92715374     -0.64189969
C          -0.13673866      1.18074812     -0.01193504
H           0.34054846      1.89961709      0.69448562
O           0.14585160      1.75934215     -1.31910177
H           0.43778697      1.05197184     -1.94646414
C           0.60379296     -0.75366093      1.51772720
H           1.22058081     -0.14410619      2.20076295
H           0.98422826     -1.80403293      1.51289658
O          -0.69711658     -0.71081338      2.09276710
H          -1.28559489     -1.37885452      1.64538997
C          -1.63588905      1.18014657      0.14799040
C          -2.44658804      0.27059020     -0.54377522
C          -2.21951069      2.14470731      0.97972533
C          -3.83428154      0.32302385     -0.39956687
H          -1.99841653     -0.49639430     -1.18411486
C          -3.60618254      2.22552966      1.11328754
H          -1.59421359      2.82759678      1.55742858
C          -4.42605086      1.32166030      0.42414352
H          -4.07049922      2.96408404      1.76384586
O          -5.76498966      1.56021088      0.61716683
O          -4.70238082     -0.51852670     -1.06177524
C          -6.70268868      0.52916720      0.20916033
H          -6.46397421     -0.41693562      0.70488497
H          -7.65471800      0.94460983      0.55625509
H          -6.67970334      0.41741467     -0.88138749
C          -4.23265350     -1.87943297     -1.29288926
H          -5.11283814     -2.34627813     -1.74543621
H          -3.37902047     -1.88014097     -1.97845513
H          -3.96889952     -2.34976915     -0.33778620
C          -1.10666754      4.19431140     -1.60713284
H          -1.16961221      3.34742841     -2.32313011
H          -1.67663631      3.90916757     -0.69889362
C           0.36070239      4.54251154     -1.33043252
H           0.95317279      3.57606574     -1.23659105
H           0.77188255      5.08896540     -2.20908172
C           1.97277324      5.95018977     -0.09224569
H           2.17690007      6.57472126      0.79481669
H           2.74041993      5.13544188     -0.09724064
H           2.14871046      6.57650888     -0.98382807
C           0.40528564      4.53696874      1.16736963
H           0.51296918      5.12867391      2.09139805
H          -0.59765727      4.04113523      1.20318121
H           1.15890265      3.72010745      1.20426817
C          -0.41651751      6.53432232     -0.03148330
H          -0.20115219      7.24082930      0.78305399
H          -0.42737951      7.08571595     -0.99316052
H          -1.46071834      6.17128509      0.08919143
N           0.56756845      5.38641556     -0.07150884
O          -1.73978066      5.37939720     -2.11195339
H          -2.07608905      5.23942808     -3.02140953
Cl         -1.33065499     -2.93087246     -0.42851506
C           0.00320785     -4.86697408      2.34747524
H          -0.96212406     -4.56380709      1.89997144
H           0.27250054     -4.15295984      3.14540142
C           1.11761367     -4.97438743      1.28562956
H           2.10285807     -5.15480409      1.77221554
C           0.84174303     -6.04545179      0.20523576
H           0.72621605     -5.57124682     -0.79679302
H           1.64446645     -6.80246579      0.16378177
O           1.28995701     -3.70751235      0.65401809
H           0.43089161     -3.43278218      0.15311627
O          -0.15130131     -6.11506897      3.02617362
H          -0.35526379     -6.81836773      2.33966761
O          -0.33411669     -6.81202780      0.49292429
H          -1.19809014     -6.22592815      0.32311767
C          -1.33503376     -5.42472574     -2.52541546
H          -0.45090372     -5.24946434     -1.87006533
H          -1.58754020     -4.47834618     -3.03629313
C          -2.52345306     -5.97513804     -1.70487420
H          -3.49220307     -5.58877911     -2.09232780
C          -2.56979336     -7.51426066     -1.60876214
H          -3.06557331     -7.82547291     -0.67002981
H          -3.08752909     -7.95517100     -2.48056323
O          -2.41853710     -5.51600795     -0.34435524
H          -2.14947913     -4.46987944     -0.32060202
O          -0.96060164     -6.30399862     -3.58389203
H          -0.73666199     -7.20152571     -3.18779571
O          -1.26286194     -8.09910592     -1.66893958
H          -0.74255896     -7.84805692     -0.82916923
          96
 Energy =     -0.95672002 a.u.  #Cluster:   35
C           2.96591140      1.65116591      2.12728053
C           1.88725370      1.60239502      1.23814362
C           1.66855558      0.43079650      0.51054034
C           2.51730357     -0.68362934      0.67462256
C           3.59720828     -0.62870352      1.55888269
C           3.80778247      0.54504546      2.29040986
H           3.13119683      2.55036039      2.72055354
H           1.20693484      2.44654713      1.13324407
H           4.23101883     -1.50293636      1.69098707
H           4.62570075      0.58830530      3.00893539
O           2.25960162     -1.91823071      0.06533994
O           0.64404242      0.36428494     -0.43377676
C           2.30320268     -1.88666393     -1.38898416
H           3.30478635     -1.59784560     -1.71667775
H           2.08387151     -2.92576247     -1.65400754
H           1.54380348     -1.19284457     -1.77080705
C          -0.67762818     -0.03355347      0.05316431
H          -1.05301446     -0.56642707     -0.85485964
C          -1.45289245      1.28779392      0.29348663
H          -1.08024872      1.81735471      1.20890885
O          -1.21803267      2.15255382     -0.83568015
H          -0.27216838      2.04503410     -1.12011989
C          -0.66671834     -0.94534514      1.26887552
H          -1.66548432     -1.01888018      1.74816085
H           0.07527301     -0.65324010      2.06001225
O          -0.36711490     -2.29811896      0.84436212
H           0.59613824     -2.33037544      0.52585358
C          -2.94407878      1.05011406      0.34564702
C          -3.57985127      0.34857633     -0.68943713
C          -3.68391273      1.50556624      1.44375457
C          -4.94261859      0.06914488     -0.59653233
H          -3.00658004      0.03146902     -1.56080791
C          -5.05693087      1.25041992      1.53156935
H          -3.18464839      2.04872459      2.26104008
C          -5.68568580      0.53006450      0.51645125
H          -5.60412561      1.60182817      2.40246076
O          -7.04452303      0.20253684      0.47961784
O          -5.66024948     -0.63816656     -1.55836976
C          -7.85249090      0.66873129      1.58678498
H          -7.78717053      1.75783397      1.68106947
H          -8.86268375      0.35883027      1.28748466
H          -7.53946304      0.16371914      2.50939931
C          -4.87830550     -1.60301405     -2.32053680
H          -5.64343624     -2.24942868     -2.75414851
H          -4.30556469     -1.07273802     -3.08461298
H          -4.22543488     -2.19599496     -1.65058569
C          -7.98832488     -2.34475222     -0.31496461
H          -6.98463168     -1.85818800     -0.30742820
H          -8.63125642     -1.89237955      0.45942300
C          -8.63022396     -2.29710000     -1.72558631
H          -7.85320843     -2.57156312     -2.47608375
H          -9.40466190     -3.09943438     -1.76797426
C         -10.02066336     -1.12897256     -3.39514349
H         -10.48534070     -0.18238587     -3.72320393
H          -9.35773089     -1.46643628     -4.21373458
H         -10.82657938     -1.87658379     -3.29014547
C          -8.18306783      0.09167872     -2.31145688
H          -8.59075268      1.04985571     -2.66021147
H          -7.61438046      0.29420712     -1.36057047
H          -7.39711465     -0.24171455     -3.01687927
C         -10.20153065     -0.48520192     -1.02520147
H         -10.75532091      0.41705014     -1.33345854
H         -10.93469468     -1.26881310     -0.76399350
H          -9.64600717     -0.22626572     -0.09069263
N          -9.24699001     -0.95400749     -2.10190501
O          -7.90848773     -3.71774173      0.01315821
H          -6.94103751     -4.04354824     -0.12545136
Cl         -1.44366074      0.85153055      3.67941518
C          -0.96637397     -2.82519024      4.20148681
H          -1.40954709     -1.82701700      4.00413539
H          -1.51998097     -3.31659238      5.01883476
C           0.54057632     -2.74305710      4.48321740
H           1.12109792     -3.06393260      3.58830081
C           1.01696878     -1.34910073      4.94996257
H           0.38973175     -0.95378782      5.76620158
H           2.06838691     -1.40981948      5.28840891
O           0.88259131     -3.61474953      5.58397648
H           0.63111626     -4.53180355      5.36907607
O          -1.20479950     -3.67405469      3.06243845
H          -0.71515156     -3.30035380      2.27189227
O           1.00979753     -0.48409988      3.83575182
H           0.09717496      0.13895350      3.84515978
C          -4.65183331     -3.31694427      0.72942093
H          -4.80899937     -2.22870477      0.58842423
H          -5.16800415     -3.65834739      1.64495717
C          -3.15854447     -3.66239206      0.76583704
H          -2.67412731     -3.22941006      1.68582589
C          -2.90475487     -5.17789638      0.67312532
H          -1.83479119     -5.42749344      0.78575823
H          -3.49761939     -5.77410920      1.38565384
O          -2.57293754     -3.08992401     -0.41725685
H          -1.63278783     -2.77357133     -0.18807866
O          -5.33102228     -3.91303384     -0.40007347
H          -4.87107843     -4.79415825     -0.64009551
O          -3.35741861     -5.61680450     -0.63151994
H          -2.86655823     -5.06866192     -1.30697777
          96
 Energy =     -0.95455349 a.u.  #Cluster:   36
C           3.66973256      2.71888910      0.84853064
C           2.66862696      2.23026000      0.00053668
C           2.78702727      0.94060930     -0.52027080
C           3.90357021      0.13853520     -0.17055575
C           4.90939463      0.63672409      0.65633932
C           4.78255202      1.93658326      1.16460401
H           3.56907919      3.71687431      1.27556280
H           1.79120463      2.83507614     -0.25100547
H           5.75591844      0.00262058      0.93752272
H           5.55108263      2.32449896      1.83286585
O           3.94534182     -1.20856052     -0.51829546
O           1.94696151      0.40530625     -1.46706867
C           3.97520442     -1.50214662     -1.94945389
H           4.97383036     -1.29310993     -2.33258307
H           3.73744698     -2.57217517     -1.97024420
H           3.20011013     -0.92481226     -2.48652050
C           0.54739325      0.16135642     -1.14783382
H           0.30590204     -0.52933037     -2.00232894
C          -0.24527036      1.48477255     -1.29139814
H           0.34397965      2.34198440     -0.87798121
O          -0.46785165      1.74028618     -2.68107023
H           0.39369831      1.66673361     -3.18248522
C           0.40206335     -0.55446707      0.19898189
H          -0.65539823     -0.82620251      0.40444403
H           0.79778926      0.04422377      1.03849515
O           1.06093535     -1.82040400      0.16449338
H           2.02616811     -1.69759019     -0.03770906
C          -1.61452351      1.39758342     -0.65907833
C          -2.67024363      0.81450990     -1.37043997
C          -1.81297871      1.88007366      0.64313602
C          -3.92386696      0.70169657     -0.76331212
H          -2.52192427      0.46544948     -2.39831809
C          -3.06780534      1.78417197      1.24583923
H          -0.99309687      2.34129322      1.19201706
C          -4.12944653      1.19667014      0.54443563
H          -3.24200634      2.15692982      2.25399373
O          -5.31664930      1.05766264      1.24628280
O          -4.95715039      0.16710326     -1.52711589
C          -6.48436653      1.62389587      0.58902367
H          -6.56501448      1.27138508     -0.44677545
H          -7.30438012      1.24788648      1.20937946
H          -6.41634483      2.71435263      0.63109243
C          -5.39326279     -1.14231903     -1.06614845
H          -6.22994794     -1.35719092     -1.73945750
H          -4.58100556     -1.86301685     -1.19796723
H          -5.71773156     -1.09173080     -0.02183090
C           5.11205123      4.39799735     -5.35553691
H           4.45263844      5.00899174     -4.70573057
H           6.02689675      4.96652844     -5.60580611
C           5.43651882      3.02698608     -4.71566644
H           4.60936448      2.31384506     -5.00690465
H           6.35108145      2.59883580     -5.17657634
C           5.77589710      1.63156023     -2.70731010
H           5.85282265      1.58674927     -1.60663889
H           4.90127739      0.99288047     -2.98892512
H           6.67496788      1.16651409     -3.14092497
C           4.34239463      3.62656741     -2.54669001
H           4.46307269      3.72764781     -1.45656174
H           4.06890185      4.60715526     -2.97529897
H           3.45166488      2.96363855     -2.71018619
C           6.77737429      3.87968290     -2.80926777
H           6.96441145      3.83597947     -1.72195782
H           7.69277989      3.52777392     -3.31679007
H           6.63861590      4.94082219     -3.07869638
N           5.57346902      3.04762258     -3.20061268
O           4.48956865      4.15890938     -6.59023366
H           3.54651965      3.69038278     -6.44223209
Cl          2.61691709      1.18460406     -4.07596694
C           8.38429174     -3.87784546     -0.05638451
H           7.94056863     -4.28732165     -0.98158553
H           9.41261523     -4.26425566      0.05415973
C           7.51225902     -4.18075293      1.17973679
H           7.94341981     -3.71046192      2.09026514
C           6.04461657     -3.75278276      0.98819680
H           5.58540640     -4.23543360      0.10901889
H           5.44042548     -3.96620539      1.88903118
O           7.42852387     -5.60710600      1.33779381
H           8.19552842     -5.94235279      1.84146500
O           8.55064154     -2.46476536     -0.20487050
H           7.66803882     -2.02217267     -0.02995023
O           6.09538901     -2.32237950      0.80896855
H           5.27752624     -2.00996202      0.32325742
C           0.33345825      2.06933473     -7.40660065
H          -0.11957511      3.06388158     -7.55998853
H          -0.08032201      1.61644008     -6.48566067
C           1.87244653      2.13497214     -7.36085645
H           2.30651763      1.11074070     -7.28360288
C           2.46900667      2.88132317     -8.57050410
H           1.97113471      3.84666826     -8.75614925
H           3.55788029      3.04242964     -8.44703887
O           2.23771195      2.90203546     -6.21328788
H           2.31393636      2.20982088     -5.32128001
O          -0.10293672      1.20138190     -8.45946243
H           0.52350385      1.27879970     -9.22746985
O           2.25913882      1.99060954     -9.69060238
H           2.36764462      2.48080197    -10.52761517
          96
 Energy =     -0.95411952 a.u.  #Cluster:   37
C           4.31375976      2.77141987     -0.20462948
C           3.15521333      2.04670630     -0.48701061
C           3.11227283      0.68028556     -0.19540517
C           4.24061097      0.03628947      0.35112572
C           5.40261052      0.76635060      0.63200027
C           5.42610913      2.13674696      0.36194012
H           4.33998661      3.84179937     -0.42037548
H           2.28098941      2.54118437     -0.93709428
H           6.24557208      0.26504855      1.09704655
H           6.31682762      2.71541397      0.60115226
O           4.25351462     -1.31587891      0.70924897
O           1.99068122     -0.07820620     -0.54421801
C           3.95519779     -2.22961384     -0.38451598
H           4.71803981     -2.13683798     -1.15929930
H           3.98812741     -3.20824546      0.11028079
H           2.94814772     -2.02736703     -0.78245314
C           0.85296648     -0.05099472      0.35226706
H           0.31385922     -0.96179618     -0.02593909
C           0.06035974      1.25058125      0.08007058
H           0.49665716      2.12711595      0.62233019
O           0.22306159      1.63239686     -1.29700783
H           0.43623466      0.84846135     -1.86110942
C           1.19920665     -0.20942507      1.83742574
H           0.28879875     -0.24140508      2.46576086
H           1.88607461      0.57925536      2.21089987
O           1.80773757     -1.49361866      2.02223239
H           2.81507509     -1.38705889      1.88254326
C          -1.40538818      1.06769566      0.39578223
C          -2.22866127      0.32070128     -0.45544491
C          -1.92615607      1.63375089      1.56847489
C          -3.57701608      0.14840731     -0.12931573
H          -1.84482172     -0.12996171     -1.37098680
C          -3.27527044      1.47798963      1.89017310
H          -1.28278687      2.20981205      2.23589943
C          -4.10866656      0.74350465      1.03787278
H          -3.69693590      1.91854887      2.79290170
O          -5.41838892      0.56475337      1.45863409
O          -4.36144901     -0.55135449     -1.03890102
C          -6.42265299      1.04274101      0.52054348
H          -6.26066416      0.61793253     -0.47728615
H          -7.35158816      0.67758410      0.97089123
H          -6.39201436      2.13564627      0.49583839
C          -4.88606278     -1.80235529     -0.50972792
H          -5.54364214     -2.13875894     -1.31796842
H          -4.05784331     -2.49979686     -0.35146164
H          -5.44216988     -1.62629016      0.41732770
C           4.14315178     -3.10340554      4.82172643
H           3.39872139     -3.00297693      5.63266335
H           3.65292865     -2.80221973      3.86533864
C           5.37754067     -2.25392678      5.11264674
H           5.01107842     -1.16770493      5.10772628
H           5.77993848     -2.45087453      6.12541785
C           7.28609076     -1.09596696      4.05437503
H           8.12478138     -1.14014391      3.34465320
H           6.61543341     -0.25648419      3.71489265
H           7.67035279     -0.81773011      5.04569511
C           6.01341523     -2.69476484      2.69450721
H           6.83097446     -2.69010356      1.96044212
H           5.49608398     -3.66704485      2.64562211
H           5.27883224     -1.90418535      2.34477495
C           7.41803781     -3.52253212      4.51837749
H           8.24312630     -3.67153808      3.80271660
H           7.86206571     -3.33953718      5.50879814
H           6.84392683     -4.47168541      4.56937307
N           6.50422063     -2.39140023      4.08814286
O           4.50581411     -4.48696153      4.63579136
H           4.47021366     -4.97382074      5.48468888
Cl          4.17506291     -0.10867089      3.31466231
C           0.93434348      4.53273227     -1.90283516
H           0.99394260      4.79770887     -2.97111307
H           1.30830840      3.48941553     -1.75794904
C          -0.48780695      4.70404994     -1.33378753
H          -0.48708489      4.54213593     -0.23155729
C          -1.11960208      6.06354914     -1.68675463
H          -1.22344275      6.19536566     -2.77529753
H          -2.10547422      6.18133716     -1.20094568
O          -1.37520470      3.76568573     -1.95420424
H          -1.04834098      2.83381918     -1.77413872
O           1.86625442      5.33279975     -1.16875098
H           1.45406257      6.22306649     -0.99568861
O          -0.24195534      7.07056341     -1.12875781
H          -0.23590339      7.86035488     -1.70191359
C           1.89296745     -5.51761637     -0.10204652
H           2.82066149     -5.10986973     -0.53821222
H           1.16722972     -5.71534281     -0.91291694
C           1.29285603     -4.58137108      0.96605204
H           0.35850475     -5.01237106      1.39174977
C           2.29476163     -4.23073858      2.08287133
H           3.22575500     -3.79866869      1.66704336
H           1.84263385     -3.51811160      2.80637732
O           0.93617080     -3.38479544      0.26703368
H           1.18795082     -2.56530048      0.81473692
O           2.17382185     -6.80801527      0.44908374
H           2.54167035     -6.69764680      1.36896797
O           2.59838503     -5.45754939      2.77226690
H           3.34762989     -5.29663633      3.40190390
          96
 Energy =     -0.95369409 a.u.  #Cluster:   38
C           3.10012603      3.26948165     -1.18129136
C           2.03614273      2.36303193     -1.23817885
C           2.11162586      1.17092695     -0.51751339
C           3.24855150      0.88943127      0.28466382
C           4.32099206      1.78613215      0.31102218
C           4.23671556      2.97223328     -0.42483024
H           3.04698610      4.19550525     -1.74975701
H           1.15369582      2.55541480     -1.85876852
H           5.22684568      1.55497801      0.88084787
H           5.07905828      3.66373724     -0.41772298
O           3.17315878     -0.26876673      1.02181450
O           1.17190681      0.16822240     -0.72547868
C           4.41870488     -0.85578137      1.49305594
H           5.11533408     -0.99534744      0.66172889
H           4.85743190     -0.22162574      2.27384607
H           4.07516078     -1.81271431      1.90295075
C          -0.09340508      0.22097932     -0.03180720
H          -0.60227589     -0.62789892     -0.56099109
C          -0.85823232      1.54816143     -0.21833856
H          -0.28821565      2.40963870      0.20531385
O          -0.93038163      1.88372617     -1.61241727
H          -1.25457397      1.07951031     -2.16202569
C           0.12737526     -0.12217742      1.44909238
H          -0.82295088     -0.26865777      1.99510502
H           0.75822121      0.62410500      1.96344640
O           0.77536530     -1.40105949      1.50833226
H           1.63028054     -1.34440471      0.97543348
C          -2.26320319      1.46268990      0.33503425
C          -3.11659165      0.42704406     -0.08496877
C          -2.72950580      2.44366845      1.21091288
C          -4.43431879      0.38739501      0.35948804
H          -2.74738381     -0.33027103     -0.78030095
C          -4.05143929      2.41259578      1.66641807
H          -2.07541757      3.25078565      1.53979942
C          -4.91704443      1.39627078      1.24339506
H          -4.43073256      3.17748644      2.34420837
O          -6.18210915      1.52124126      1.75923115
O          -5.35866744     -0.56576611     -0.02843824
C          -7.17998758      0.54065098      1.37477380
H          -6.89054264     -0.44923303      1.74145984
H          -8.07367701      0.91958632      1.88382528
H          -7.30447988      0.53558966      0.28604500
C          -4.83838738     -1.76329119     -0.66157789
H          -5.75464867     -2.34468762     -0.82132958
H          -4.36227116     -1.51622620     -1.61618448
H          -4.15197032     -2.28007215      0.01663309
C           5.57104132      2.11191667      6.08248485
H           5.26021213      2.78044021      6.90629931
H           5.18771216      1.08953286      6.27949982
C           5.14313376      2.56526784      4.70876992
H           5.88340948      1.86694120      3.86341508
H           4.12582567      2.24525864      4.45709608
C           4.93770698      4.23492989      2.93396824
H           5.15388550      5.25858756      2.59701473
H           5.46754735      3.53241246      2.24674941
H           3.86059533      4.04019244      2.80630786
C           6.85751590      4.33878683      4.46555477
H           7.05348428      5.40578768      4.31177744
H           7.26879926      4.02499036      5.45329332
H           7.44576519      3.75562177      3.72064939
C           4.60549977      4.92356321      5.27802985
H           4.72017353      5.98006183      4.99182076
H           3.53059265      4.67812611      5.26459059
H           4.95069457      4.82032411      6.32317950
N           5.38667282      3.99958123      4.36362306
O           7.00076622      2.09328297      6.21858740
H           7.40419330      1.52955500      5.50625872
Cl          6.94911183      1.29487933      2.85079967
C          -2.39522436      0.86336769     -4.38510726
H          -1.30806936      1.04505040     -4.48938411
H          -2.67305270     -0.02548286     -4.97875804
C          -3.21841991      2.10428847     -4.77727013
H          -4.30343188      1.86404152     -4.81923648
C          -2.96452574      3.32124345     -3.86009828
H          -1.94467766      3.72009380     -3.99081841
H          -3.70267306      4.12149682     -4.05530830
O          -2.76249449      2.55388904     -6.06283357
H          -3.16124640      2.01976633     -6.77801404
O          -2.61388647      0.49008575     -3.00986681
H          -3.26856554      1.14943217     -2.57670311
O          -3.19744088      2.91442716     -2.50644737
H          -2.30542080      2.81566444     -2.00975851
C           0.22913286     -4.81929635      3.95234134
H           0.77848519     -4.72904478      4.90832504
H           0.87328904     -5.31896103      3.20633915
C          -0.23093747     -3.42935673      3.46497134
H          -0.27773502     -3.38048257      2.35212775
C          -1.57481056     -2.96542684      4.06005571
H          -1.60467782     -1.86462575      4.14642838
H          -2.43502142     -3.32747513      3.46596126
O           0.78659125     -2.52522165      3.93095413
H           1.04555365     -1.91855748      3.17657135
O          -0.86843411     -5.71868934      4.10790804
H          -1.50715844     -5.33643977      4.77341635
O          -1.82070749     -3.54167059      5.35616582
H          -1.12549605     -3.23961015      5.98393997
          96
 Energy =     -0.95237451 a.u.  #Cluster:   39
C           3.34370585      4.01130935      0.54062384
C           2.38186820      3.14991962      0.00226234
C           2.53651832      1.77284683      0.17347504
C           3.61404275      1.26423953      0.93464302
C           4.58398066      2.12822173      1.44929451
C           4.44196505      3.50437895      1.24317595
H           3.23516308      5.08783749      0.40774397
H           1.52241470      3.53919641     -0.54530906
H           5.42534888      1.71802600      2.01042796
H           5.19526873      4.18677965      1.63961729
O           3.66510166     -0.07522184      1.29668344
O           1.74372337      0.83811548     -0.47948491
C           3.97125057     -0.99352977      0.20105717
H           4.89201133     -0.67582670     -0.30899387
H           4.10491722     -1.94275967      0.73006813
H           3.13098649     -1.01676389     -0.50126501
C           0.36874628      0.65779358     -0.06488353
H           0.17230943     -0.34370994     -0.52510931
C          -0.51710621      1.75799490     -0.70529055
H          -0.09161750      2.77368452     -0.49972059
O          -0.38901308      1.66989553     -2.13275123
H          -1.06283587      1.06801222     -2.51881931
C           0.23407819      0.60188220      1.46264645
H          -0.81220258      0.39969697      1.77428321
H           0.59371866      1.52764319      1.94889980
O           0.96023075     -0.51499413      1.98559108
H           1.94079452     -0.44306224      1.72934389
C          -1.95450089      1.63116236     -0.26268013
C          -2.74118429      0.57611091     -0.74496837
C          -2.49488675      2.55449595      0.64215124
C          -4.07214075      0.46357601     -0.33868060
H          -2.34005825     -0.17126206     -1.43093747
C          -3.82496650      2.44796937      1.05282478
H          -1.88281787      3.37100129      1.02795765
C          -4.62697606      1.41138830      0.55474212
H          -4.25864606      3.16136821      1.75517106
O          -5.90670887      1.34041150      1.06671956
O          -4.82443835     -0.54992646     -0.91692379
C          -6.97254873      1.25003089      0.07912502
H          -6.75334445      0.49379431     -0.68372518
H          -7.83252084      0.96440535      0.69563480
H          -7.11065301      2.23768265     -0.36968079
C          -5.13516501     -1.63956041      0.00001404
H          -5.78344799     -2.27573782     -0.61326234
H          -4.21093161     -2.15872398      0.27350280
H          -5.65840754     -1.25952631      0.88304722
C           5.04717485      1.39517580     -2.89648174
H           6.09715542      1.68885275     -3.09444743
H           4.63002931      2.04038783     -2.09959644
C           4.25503412      1.38394425     -4.17432605
H           4.60652857      2.11530939     -4.90628678
H           4.56895354      0.22086459     -4.79728219
C           2.15101455      1.25472367     -5.42345043
H           1.05388270      1.20926377     -5.37082235
H           2.44144957      2.09606795     -6.07064813
H           2.51044955      0.32662094     -5.92715288
C           2.27167821      2.65351426     -3.40343251
H           1.18771640      2.60082152     -3.17697166
H           2.79011650      2.82511002     -2.44251930
H           2.45924037      3.52443843     -4.04605949
C           2.31107745      0.19502608     -3.21345543
H           1.24032370      0.26278471     -2.96560722
H           2.52823342     -0.75949277     -3.73441967
H           2.86724662      0.15058214     -2.24828615
N           2.76987997      1.37358399     -4.04277624
O           5.07212433      0.09973060     -2.26481901
H           5.27357922     -0.60236873     -2.93982752
Cl          4.65595107     -1.19313704     -5.41312869
C          -0.29807722     -2.82774087      3.62101135
H           0.55208487     -3.36119227      4.08134593
H          -0.01808781     -2.50654971      2.59479950
C          -0.77443922     -1.64192793      4.47996659
H          -1.65592674     -1.14585342      4.01198634
C          -1.08425589     -2.04587376      5.93423809
H          -0.22495515     -2.53452827      6.42227495
H          -1.40798383     -1.17318843      6.52935822
O           0.27861012     -0.68467375      4.62370813
H           0.71478605     -0.52337386      3.73074321
O          -1.37170768     -3.76466351      3.41778707
H          -1.93370509     -3.80398382      4.24991185
O          -2.19576220     -2.96898945      5.83415192
H          -2.28284639     -3.47936547      6.66379416
C          -0.44041602     -8.93824856      3.65863388
H          -1.25481927     -8.83223842      4.39753076
H          -0.15908198    -10.00306131      3.57855586
C           0.76617136     -8.04156692      4.00395199
H           1.54904398     -8.11095764      3.21641987
C           0.35892926     -6.57362686      4.23299928
H          -0.43247942     -6.48029502      4.99481202
H           1.22980710     -5.95869949      4.52239417
O           1.30154450     -8.44480443      5.27756896
H           1.85671304     -9.24181700      5.17621397
O          -0.93973353     -8.60720356      2.36249084
H          -0.94385134     -7.60678977      2.26468992
O          -0.12015418     -6.12610533      2.95349482
H          -0.66021987     -5.27810058      3.06630027
          96
 Energy =     -0.95133383 a.u.  #Cluster:   40
C           3.10118980      2.53355969      2.09955969
C           2.19735590      2.27436697      1.06774931
C           2.14471118      0.99854565      0.49848102
C           3.02541167     -0.00962366      0.94881978
C           3.93955584      0.25785247      1.97545768
C           3.96239208      1.52823873      2.55603819
H           3.11904415      3.52229308      2.56297265
H           1.51630944      3.05995742      0.71113747
H           4.60693297     -0.53412599      2.31343840
H           4.65461899      1.73596285      3.37356778
O           2.96866146     -1.33026004      0.51463395
O           1.30227771      0.76609865     -0.58167592
C           3.12053640     -1.51537778     -0.92049351
H           4.14101200     -1.25103501     -1.20819092
H           2.93581193     -2.58942976     -1.03604469
H           2.38168232     -0.91563852     -1.46604684
C          -0.04930596      0.25889215     -0.31831750
H          -0.12909528     -0.51431825     -1.12155801
C          -0.99349800      1.44976437     -0.61010340
H          -0.54921021      2.40798001     -0.22587513
O          -0.99917333      1.66708972     -2.04013859
H          -1.50207420      0.96285745     -2.49932540
C          -0.24408099     -0.39044076      1.05568757
H          -1.31672874     -0.46648568      1.33669196
H           0.27520608      0.14910677      1.87416490
O           0.17895490     -1.75215389      1.00457747
H           1.17171463     -1.79452651      0.91516662
C          -2.40817573      1.25342145     -0.12312915
C          -3.19284999      0.20478869     -0.62482733
C          -2.93371783      2.13512535      0.82993744
C          -4.50798015      0.05557876     -0.17635687
H          -2.80285482     -0.51027638     -1.34688903
C          -4.24476546      1.98552907      1.28808533
H          -2.31233689      2.95580593      1.22801682
C          -5.03732065      0.95002187      0.78198850
H          -4.65939153      2.66558829      2.03344498
O          -6.30081287      0.79276050      1.33669668
O          -5.26108897     -0.93888592     -0.78576254
C          -7.40079370      0.98589601      0.40327568
H          -7.34250235      0.25424233     -0.40794496
H          -8.27768074      0.82194512      1.05108214
H          -7.38071421      2.00893234      0.02106322
C          -5.72574612     -1.97506208      0.12462480
H          -6.37584624     -2.57430426     -0.52114833
H          -4.86670858     -2.55391979      0.47606669
H          -6.28059361     -1.53453042      0.96100428
C           0.20659704      7.34301291     -2.29283123
H          -0.88966497      7.21103200     -2.39891152
H           0.39150576      8.16904338     -1.57864950
C           0.92443006      6.07759537     -1.83156347
H           2.02372281      6.19240431     -1.91821835
H           0.70813469      5.93547261     -0.70766910
C           1.24908423      3.64101976     -1.93846643
H           0.87248470      2.65910980     -2.30523479
H           2.32701877      3.69573051     -2.13580769
H           1.11054845      3.60424338     -0.82522199
C           0.82560064      4.87524458     -4.01905939
H           0.44140200      3.99373173     -4.55825179
H           0.38654051      5.78567299     -4.48280942
H           1.91274598      4.92917111     -4.18735183
C          -0.99393991      4.58389437     -2.38686212
H          -1.28710293      3.54935447     -2.67150679
H          -1.30441060      4.68682486     -1.31567047
H          -1.58250544      5.29707787     -2.97865586
N           0.49195671      4.80099525     -2.54445657
O           0.62013322      7.72661945     -3.61145461
H           1.47988477      8.19273240     -3.58778069
Cl         -0.29432500      4.88226289      0.87410672
C           0.94802761      1.61471203      4.78263442
H           1.63139947      1.37323792      3.94684552
H           1.00172292      0.81107062      5.53719922
C          -0.49125196      1.85701564      4.28499319
H          -1.17459051      2.09579724      5.12762828
C          -0.55594618      2.93643432      3.19214985
H           0.14353369      2.72034964      2.36533388
H          -1.57760970      3.05675029      2.77935381
O          -0.95611439      0.67586290      3.59922977
H          -1.08235462     -0.06046050      4.22839619
O           1.44677428      2.76865351      5.46128453
H           1.12067569      3.59391101      4.98444844
O          -0.17610261      4.16110357      3.84900550
H          -0.03568686      4.86516597      3.14890912
C          -9.84532980      2.48685502      4.91927511
H          -9.90969395      1.49304586      5.39772141
H         -10.86466125      2.84375565      4.68806503
C          -8.93298662      2.47396775      3.67573244
H          -8.76801501      3.50909302      3.29817953
C          -7.58957685      1.77345420      3.93827807
H          -7.71822580      0.75726265      4.34384947
H          -6.96354389      1.73273151      3.02020352
O          -9.54048982      1.67563527      2.64081986
H         -10.36087994      2.10312798      2.32402339
O          -9.35338896      3.43338979      5.86977598
H          -8.36074781      3.33098036      5.94029321
O          -6.92764509      2.62172662      4.90481375
H          -6.17693189      2.13989793      5.30772097
          96
 Energy =     -0.95098346 a.u.  #Cluster:   41
C           3.94607052      3.11563794      1.29633312
C           3.25840834      2.23342855      0.46071643
C           3.48726165      0.85654894      0.58549440
C           4.40245835      0.36841982      1.54167182
C           5.09212876      1.26393249      2.37462886
C           4.85745633      2.63258177      2.24387489
H           3.76092730      4.18632817      1.21220307
H           2.53729936      2.59980399     -0.28340008
H           5.78368717      0.87306741      3.12008162
H           5.39290146      3.32976112      2.88834998
O           4.59700937     -0.97704273      1.80945686
O           2.92049688     -0.04565484     -0.29734746
C           4.94277644     -1.81713681      0.67077237
H           5.83554723     -1.43857814      0.17544175
H           5.13358528     -2.78042587      1.15959090
H           4.08198949     -1.89017234     -0.01785997
C           1.50384453     -0.39222386     -0.13236748
H           1.49521567     -1.35115486     -0.72049985
C           0.66871647      0.70654918     -0.83470492
H           1.11264183      1.71754081     -0.62619924
O           0.74682395      0.48680074     -2.23882739
H           1.07627517      1.49352736     -2.74028024
C           1.11218410     -0.62372463      1.33297313
H           0.03713032     -0.90053695      1.41381796
H           1.31774427      0.26345223      1.95866599
O           1.76488214     -1.75840740      1.89331560
H           2.73922669     -1.58098399      1.98968997
C          -0.79591316      0.69987936     -0.44785648
C          -1.70927359     -0.04626614     -1.19744813
C          -1.23484564      1.49666682      0.62184128
C          -3.07432400      0.03929676     -0.89832570
H          -1.37047953     -0.66130347     -2.03630208
C          -2.59534850      1.59326326      0.91696426
H          -0.52077329      2.06654188      1.21596146
C          -3.51969999      0.87990209      0.14715011
H          -2.94531535      2.23357357      1.72615504
O          -4.86114097      1.00858231      0.49897762
O          -3.94261663     -0.62649082     -1.75394782
C          -5.69666454      1.53139293     -0.57454668
H          -5.57479732      0.94468950     -1.49437727
H          -6.70413760      1.42707918     -0.16281782
H          -5.43256262      2.57897853     -0.74345805
C          -4.73070944     -1.66751721     -1.11472181
H          -5.40864352     -1.96831417     -1.92130582
H          -4.07072568     -2.48978825     -0.82403512
H          -5.27703667     -1.26971548     -0.25364998
C           3.59869991     -0.92445301     -3.14142503
H           4.20423303     -1.79393954     -3.45854657
H           3.91214263     -0.58699743     -2.12336089
C           3.66083119      0.23211305     -4.15774492
H           3.71078003     -0.15174182     -5.19845948
H           2.68405290      0.79663808     -4.10730637
C           4.72320406      2.35506155     -4.86120363
H           5.50942917      3.10668433     -4.68296467
H           4.77841492      2.03160588     -5.91195112
H           3.74635795      2.89023296     -4.73539283
C           6.13248810      0.46727582     -4.11924904
H           6.98942892      1.15966711     -4.06631871
H           6.29193493     -0.31541378     -3.35390243
H           6.16470419     -0.03035731     -5.10408599
C           4.78040333      1.71315408     -2.48282572
H           5.64799968      2.33540098     -2.23096597
H           3.86491037      2.33871861     -2.30662183
H           4.68978897      0.88824906     -1.74239456
N           4.81868506      1.19174919     -3.89875125
O           2.27706978     -1.41447802     -3.06839278
H           1.60896876     -0.63686544     -2.69614990
Cl          1.76101934      2.88614153     -3.13570893
C         -10.20496745      0.90089432      2.03581203
H         -10.83988419      0.07055260      2.39041689
H          -9.99052940      0.76034784      0.96080858
C          -8.90969046      1.04198913      2.86088123
H          -8.37843883      1.98169125      2.59441943
C          -9.17470277      0.97511093      4.37970720
H          -9.67626744      0.03544056      4.66415756
H          -8.24162499      1.08925644      4.95907682
O          -8.10792419     -0.11042716      2.56035092
H          -7.21499212      0.15389680      2.25122410
O         -10.94982066      2.11945901      2.09674723
H         -10.97124802      2.43621058      3.04240753
O         -10.01794735      2.11246670      4.67501435
H         -10.58551339      1.91873883      5.44694799
C           4.02456306     -4.67174487     -2.81145961
H           5.00583535     -4.51477001     -2.33256930
H           3.89532079     -3.95117615     -3.64213325
C           2.86295420     -4.56047881     -1.80244090
H           1.88634192     -4.72219901     -2.31312041
C           3.00364085     -5.49449773     -0.58553689
H           3.93035343     -5.31495693     -0.01827462
H           2.13110370     -5.38327035      0.08826458
O           2.90989837     -3.25645830     -1.21845981
H           2.45378551     -2.57851754     -1.82904715
O           4.03716387     -5.94753102     -3.45774642
H           3.79208761     -6.65106308     -2.79244907
O           2.99528248     -6.83706959     -1.12625445
H           3.43053704     -7.45263628     -0.50620521
          96
 Energy =     -0.94635974 a.u.  #Cluster:   42
C           3.42052242      3.00737355      0.23803643
C           2.35639556      2.22794705     -0.22686889
C           2.32664253      0.86305200      0.07034406
C           3.37970914      0.28407019      0.81768503
C           4.44430479      1.06333284      1.27390699
C           4.45189848      2.43289786      0.98710646
H           3.44660387      4.07215890      0.00522470
H           1.55602033      2.66706275     -0.82942079
H           5.24440445      0.59916364      1.84817662
H           5.27461288      3.05088196      1.34512398
O           3.34152480     -1.05590744      1.20270098
O           1.38321717     -0.00077785     -0.45728153
C           3.47002658     -1.99267212      0.09236016
H           4.45134798     -1.87424308     -0.37217692
H           3.37518013     -2.96116062      0.59477274
H           2.65729204     -1.82982566     -0.62929406
C           0.00968033      0.04813667      0.01405873
H          -0.38376632     -0.83904984     -0.54616231
C          -0.72042871      1.33731730     -0.43155219
H          -0.05183155      2.22889830     -0.34748062
O          -0.99899837      1.14720626     -1.82893974
H          -1.60750104      1.88116655     -2.13593932
C          -0.07560141     -0.13824512      1.53670492
H          -1.13379322     -0.33493665      1.84182741
H           0.32293426      0.73965808      2.07706116
O           0.61072421     -1.30378800      1.98904574
H           1.56605855     -1.28158925      1.68712380
C          -2.01545144      1.54071502      0.32540688
C          -3.12449355      0.74740681     -0.01647666
C          -2.11635491      2.50786692      1.32543416
C          -4.33239575      0.92272130      0.65208738
H          -3.01883512     -0.00640888     -0.79718642
C          -3.31552785      2.66493305      2.03078609
H          -1.26417056      3.13626176      1.57985320
C          -4.41953131      1.86352705      1.72209285
H          -3.40485989      3.39650496      2.83213752
O          -5.53463772      2.12139797      2.48010638
O          -5.50937581      0.30798399      0.27884394
C          -6.47602645      1.02301371      2.64456757
H          -7.03918955      0.89119886      1.71382885
H          -5.94151577      0.10027265      2.90797533
H          -7.10408755      1.38414450      3.46325624
C          -5.39431453     -1.03304337     -0.27106463
H          -6.43646804     -1.36952643     -0.26429870
H          -4.99280361     -0.98066232     -1.28455584
H          -4.77563935     -1.66224358      0.38394135
C          -1.35659094      0.95861918      4.67401281
H          -0.43817475      0.68623685      4.11639352
H          -1.92920234      1.70424444      4.08559055
C          -2.22912932     -0.21879964      5.01471137
H          -3.06024882      0.04973435      5.67921247
H          -2.86153623     -0.55799973      3.93392614
C          -2.54257887     -2.53781309      5.76521998
H          -2.05281635     -3.46878655      6.10433923
H          -3.27611117     -2.22529120      6.52206516
H          -3.11408348     -2.77105798      4.83713806
C          -0.75315003     -1.17675845      6.76953697
H          -0.14404607     -2.04858391      7.06654022
H          -0.08464692     -0.29844912      6.63686827
H          -1.43305589     -0.92834759      7.59732249
C          -0.56151626     -1.96535150      4.44126197
H          -0.08343594     -2.90520662      4.74896773
H          -1.08749101     -2.14696211      3.47274747
H           0.23086814     -1.23012376      4.20110881
N          -1.51939599     -1.45220164      5.49228806
O          -0.81808743      1.60413856      5.84995623
H          -1.52764293      2.03615812      6.35853509
Cl         -3.57908921     -1.28428013      2.68763729
C          -3.67696637      4.45287191     -4.57583681
H          -4.55492688      5.02009296     -4.21915965
H          -3.56883058      4.59277666     -5.66768692
C          -3.76350529      2.95908625     -4.20345523
H          -2.82111769      2.43197153     -4.47551454
C          -4.09412138      2.74725664     -2.71209475
H          -4.97082605      3.33297385     -2.38729380
H          -4.25253139      1.68300412     -2.46139663
O          -4.86206772      2.45652602     -4.97516803
H          -4.80877946      1.48312824     -5.05887142
O          -2.48966496      5.02523276     -4.02321164
H          -2.37459158      4.70012393     -3.08878950
O          -2.91067443      3.21083136     -2.01832554
H          -3.11480389      3.33981939     -1.05886898
C          -0.71140109     -6.15175738      8.45326839
H           0.25129676     -6.69366622      8.43313161
H          -1.36106642     -6.52538384      7.63670740
C          -0.53193960     -4.62333180      8.38133937
H          -1.51166794     -4.10652245      8.53449742
C           0.51263969     -4.10251797      9.39076445
H           1.47804690     -4.62948480      9.31936435
H           0.67298087     -3.01437816      9.27656755
O          -0.14204182     -4.20946980      7.06747178
H           0.63296467     -4.71851115      6.74527977
O          -1.41465981     -6.50698282      9.64198673
H          -1.06046810     -5.97140064     10.40665254
O          -0.08928794     -4.34444376     10.67889157
H           0.58451774     -4.26892859     11.38665688
          96
 Energy =     -0.94609338 a.u.  #Cluster:   43
C           3.35309365      2.49726817      0.18324428
C           2.46069957      1.57454647     -0.36862724
C           2.45270936      0.26556995      0.11797519
C           3.36432551     -0.12224668      1.12437025
C           4.25988406      0.79953903      1.66956762
C           4.23545974      2.11798429      1.20167686
H           3.35677960      3.52243237     -0.19502478
H           1.78230333      1.85831425     -1.19090759
H           4.95226543      0.48435074      2.44626682
H           4.91963062      2.84984617      1.62821644
O           3.36181216     -1.43191564      1.63172813
O           1.66018439     -0.72865657     -0.43562736
C           3.99860342     -2.37453025      0.72107845
H           5.04186240     -2.08407387      0.56485981
H           3.92734718     -3.32068805      1.26385622
H           3.44541189     -2.39672343     -0.22581713
C           0.23753361     -0.69792402     -0.16523987
H          -0.05122183     -1.57411756     -0.80008075
C          -0.51926063      0.56088812     -0.70752640
H          -0.16386182      1.49599928     -0.21407672
O          -0.31952802      0.59170730     -2.06209256
H          -0.20261427      1.78789719     -2.42867995
C           0.01410616     -0.95435702      1.33314299
H          -1.04783245     -1.11802163      1.58862809
H           0.41493187     -0.13375177      1.95593900
O           0.65275427     -2.18488606      1.71527676
H           1.65500750     -2.01897007      1.72261610
C          -2.01031552      0.33413368     -0.41531485
C          -2.75963062     -0.38815311     -1.35442005
C          -2.62236403      0.81184019      0.74742246
C          -4.07973095     -0.72765177     -1.06287465
H          -2.30202743     -0.65219573     -2.31732096
C          -3.96055873      0.51201877      1.02699309
H          -2.05965337      1.43667561      1.44337613
C          -4.68807793     -0.28275419      0.13649872
H          -4.42230214      0.89546086      1.93226958
O          -5.97810186     -0.73894653      0.34415054
O          -4.67455239     -1.63929123     -1.93486794
C          -6.78389990     -0.01410962      1.30675067
H          -6.85635810      1.04085583      1.02289494
H          -7.75482515     -0.51663086      1.21387310
H          -6.37471893     -0.13623513      2.31343627
C          -5.98618721     -1.25951554     -2.43680276
H          -6.21040680     -2.06863327     -3.13898279
H          -6.70525686     -1.22391049     -1.60985293
H          -5.91383900     -0.29315402     -2.94635600
C          -3.67642333     -3.71297115      0.63942890
H          -3.74402919     -4.63672865      1.25993975
H          -4.14655352     -2.86870281      1.18480883
C          -2.22755268     -3.34452686      0.28392488
H          -2.23524201     -2.49346326     -0.44558914
H          -1.70094997     -2.96420275      1.19850129
C           0.00930664     -3.99713498     -0.53963752
H           0.65416919     -4.76958037     -0.97756172
H           0.04586310     -3.09743439     -1.20355667
H           0.47634081     -3.64897432      0.42189358
C          -1.99430267     -4.89357945     -1.64970044
H          -1.48706722     -5.77109789     -2.07357569
H          -3.08105898     -5.13158323     -1.54202528
H          -1.93674507     -4.06905276     -2.38648030
C          -1.36798954     -5.66245809      0.61848956
H          -0.82205630     -6.51422750      0.18763759
H          -0.88538750     -5.39758299      1.57703170
H          -2.39517167     -6.01923999      0.87034662
N          -1.40502489     -4.48120021     -0.32062584
O          -4.44454010     -4.02691762     -0.51589075
H          -4.68700681     -3.17952106     -1.01701479
Cl          0.00200381      3.28495501     -2.49251932
C          -4.92652525     -5.21591286      3.97877256
H          -5.71193453     -5.12482486      3.20447847
H          -4.40393954     -4.24632600      4.08584762
C          -3.94505912     -6.35771274      3.62551082
H          -2.90247496     -6.11018069      3.93142263
C          -4.35423242     -7.72789869      4.19857573
H          -3.94720227     -8.54975983      3.58352650
H          -4.02025410     -7.84457530      5.24906180
O          -3.83938987     -6.43784492      2.19409263
H          -4.70614405     -6.75231917      1.79570483
O          -5.53187093     -5.40870780      5.25237044
H          -6.02723331     -6.28067718      5.25061497
O          -5.77901185     -7.87452682      4.29607929
H          -6.18757152     -7.79668515      3.38536654
C          -6.32717050     -8.71294242      0.87979124
H          -6.07239624     -8.49419988     -0.17358881
H          -5.52898362     -9.33128831      1.32816736
C          -7.71472019     -9.37448407      0.99741653
H          -7.87844263     -9.77408433      2.02294071
C          -8.88526670     -8.46073451      0.57256421
H          -9.39544960     -8.87505167     -0.31890030
H          -9.61640794     -8.32548069      1.39430985
O          -7.75288090    -10.44774789      0.04338941
H          -7.38099343    -11.27096645      0.42258345
O          -6.29752513     -7.49207618      1.63620885
H          -7.05430647     -6.88831147      1.30787186
O          -8.43801635     -7.11834612      0.31414129
H          -8.16661393     -7.01430712     -0.62624510
          96
 Energy =     -0.94530277 a.u.  #Cluster:   44
C           4.04445021      1.62231841     -1.26017554
C           2.68917150      1.37450786     -1.02146663
C           2.31422356      0.14491141     -0.47889831
C           3.28270905     -0.84204497     -0.19141164
C           4.63740653     -0.57458862     -0.40553063
C           5.01048843      0.66151003     -0.93984461
H           4.34924688      2.57719675     -1.68882632
H           1.92160968      2.12602566     -1.24165861
H           5.39109240     -1.31755095     -0.10367775
H           6.06659101      0.87828810     -1.10388698
O           2.95943317     -2.04159716      0.43100149
O           0.97519809     -0.17918057     -0.25115100
C           1.93858981     -2.85295345     -0.24088691
H           2.24198607     -3.06768155     -1.27049141
H           1.94568108     -3.77807427      0.35399965
H           0.97189570     -2.34357135     -0.20814510
C           0.36168936      0.33638549      0.96364401
H          -0.35096825     -0.50079431      1.18215072
C          -0.38326798      1.65051544      0.57333734
H           0.08747505      2.55898415      1.02101314
O          -0.25482298      1.90096820     -0.82279764
H          -0.21487507      1.04240747     -1.32682486
C           1.32750283      0.54835259      2.12874990
H           0.80821141      0.96878772      3.01596013
H           2.17867765      1.20334185      1.85572342
O           1.86013615     -0.68965633      2.62725849
H           2.08165511     -1.31661260      1.86774517
C          -1.84389464      1.53604193      0.96100862
C          -2.71170115      0.73620153      0.20764933
C          -2.30933941      2.21777167      2.09419583
C          -4.04974175      0.61668686      0.59786475
H          -2.37054709      0.21115114     -0.68561253
C          -3.64659149      2.11404430      2.48040214
H          -1.63376144      2.84305077      2.67827735
C          -4.51531886      1.31035266      1.73604695
H          -4.02526926      2.65198483      3.35648789
O          -5.81553957      1.15736396      2.22107550
O          -4.88530877     -0.11910918     -0.22945259
C          -6.84716098      1.66729175      1.32546438
H          -6.74134190      1.21370446      0.33194518
H          -7.76902760      1.34391940      1.82067135
H          -6.77354991      2.75701844      1.27466957
C          -5.43741775     -1.31197323      0.39656274
H          -6.12332599     -1.67919626     -0.37524365
H          -4.63027566     -2.02722733      0.58222789
H          -5.96652539     -1.05398774      1.31983229
C           5.28273935     -6.48805542     -2.63226916
H           4.74624177     -7.15569831     -1.93414926
H           4.53021485     -5.92280959     -3.22637573
C           6.31024772     -5.57009858     -1.93188727
H           6.88625180     -6.15729548     -1.18487348
H           7.04411243     -5.23414407     -2.70257692
C           6.80904728     -3.49629225     -0.69364069
H           6.38806208     -2.59128849     -0.17845688
H           7.37712387     -4.02376861      0.09037083
H           7.50445704     -3.15502890     -1.47077581
C           4.80040473     -4.78605758     -0.13402692
H           4.42715746     -3.94720257      0.46441543
H           3.76751388     -5.28765362     -0.59634011
H           5.23528005     -5.54141736      0.51562245
C           4.91410652     -3.53958071     -2.25675334
H           4.40314728     -2.68871720     -1.77036861
H           5.55527726     -3.15744264     -3.06206923
H           4.09874997     -4.15101343     -2.71617306
N           5.69094559     -4.35662584     -1.24705253
O           6.02242509     -7.22438394     -3.61034774
H           6.29899047     -8.09334861     -3.25905540
Cl          2.43859374     -5.77142761     -1.52544465
C           5.28918515     -2.21452151      2.69109168
H           4.34889368     -2.25616070      2.09859460
H           5.53268358     -3.22613005      3.06759865
C           5.15995726     -1.20185614      3.84559352
H           4.66968006     -1.68485194      4.72281730
C           6.49421881     -0.53926853      4.24043197
H           6.37312135      0.11763737      5.12010661
H           7.30870858     -1.26544646      4.40522228
O           4.37376914     -0.07047287      3.45320774
H           3.43142578     -0.34936812      3.20679247
O           6.32555828     -1.92723203      1.73920671
H           6.76284455     -1.04218643      1.95011853
O           6.94858311      0.25886519      3.12736813
H           6.21224464      0.89051534      2.88873535
C          -4.16556393      1.84395358      6.38669567
H          -4.35704820      2.74536489      6.99463320
H          -3.35610616      2.05456098      5.66392592
C          -5.43973855      1.34181113      5.67939964
H          -5.24573538      0.37440338      5.16532642
C          -6.64098903      1.21613090      6.63867618
H          -6.84108389      2.15999408      7.17106937
H          -7.54994826      0.89039539      6.10336388
O          -5.80408529      2.36057302      4.74099341
H          -5.94942666      1.95877958      3.83602485
O          -3.63106401      0.81807164      7.22699812
H          -4.38259972      0.35554102      7.69222599
O          -6.27366623      0.17519201      7.57251997
H          -6.78007457      0.27587405      8.40213893
          96
 Energy =     -0.93535462 a.u.  #Cluster:   45
C           4.36042090      2.81116883      0.24386862
C           3.34516735      2.06266744     -0.35755688
C           3.48304985      0.67787272     -0.43614041
C           4.68113375      0.06748419     -0.00156493
C           5.71338439      0.81504958      0.56184483
C           5.52805795      2.19487100      0.71075714
H           4.22224681      3.89429461      0.34698300
H           2.44637520      2.55580256     -0.77965692
H           6.63718745      0.33622222      0.86757896
H           6.30858208      2.79416145      1.17793586
O           4.80105132     -1.33009966     -0.13050361
O           2.58501579     -0.18009544     -1.04752275
C           5.26741441     -1.72457992     -1.45706778
H           6.26277635     -1.30959889     -1.63465785
H           5.28306667     -2.82053910     -1.39232004
H           4.55101041     -1.37041254     -2.21017108
C           1.18778221     -0.26105886     -0.64028384
H           0.74895292     -0.54981566     -1.62841596
C           0.49705846      1.00333702     -0.07884628
H           1.06926122      1.40594775      0.79667794
O           0.48902729      1.96393532     -1.11684082
H           0.43787565      2.93650025     -0.66107788
C           1.12610888     -1.39343191      0.40814778
H           0.22594625     -2.02533348      0.28373874
H           1.16486139     -1.01264845      1.44530964
O           2.24674603     -2.29568972      0.27667894
H           3.02746871     -1.80478774     -0.17133123
C          -0.93853612      0.69082124      0.32483642
C          -1.75661263     -0.11599857     -0.47016704
C          -1.44596419      1.26970205      1.49690471
C          -3.09029038     -0.35268187     -0.09143902
H          -1.40541587     -0.53509070     -1.41168338
C          -2.76540999      1.03621162      1.87987525
H          -0.83291809      1.95789459      2.09558310
C          -3.59773517      0.23603506      1.08833601
H          -3.15649587      1.48302362      2.79432280
O          -4.90748335     -0.03811601      1.47424643
O          -3.73769497     -1.20944583     -0.95339947
C          -5.72950971      1.14798311      1.65698397
H          -5.77614209      1.71900979      0.72421676
H          -6.70199213      0.71873620      1.91681711
H          -5.34017042      1.76345425      2.47322420
C          -5.17265163     -1.35762066     -0.81220761
H          -5.40329994     -2.08545335     -1.59681649
H          -5.41721733     -1.74252598      0.18511291
H          -5.66540213     -0.39765703     -0.99040693
C           2.76759330     -4.72142991      2.02889278
H           2.75602735     -5.15401780      3.04675465
H           1.99870227     -3.92784990      1.92912816
C           4.16804495     -4.20141874      1.62408635
H           4.84301285     -5.07346697      1.45864223
H           4.09691794     -3.69696782      0.62296951
C           6.12273815     -2.76921654      2.09404490
H           6.65051414     -2.12120772      2.81219278
H           6.78181799     -3.61368798      1.83540708
H           5.98253939     -2.16567578      1.15729498
C           5.00669863     -3.93545694      3.95215852
H           5.44211155     -3.25372414      4.70354114
H           4.05751893     -4.32498523      4.36656316
H           5.68922005     -4.79756137      3.84315602
C           3.88952399     -2.03632478      2.82969811
H           4.38788758     -1.23386622      3.39855234
H           3.59211436     -1.60109539      1.84083822
H           2.95331374     -2.30069386      3.35023880
N           4.78588031     -3.23666239      2.62715633
O           2.46753196     -5.81230838      1.17969326
H           2.09530375     -5.45815464      0.28542082
Cl          0.96326976      4.11839861      0.66523397
C          -3.46679642      4.35016813      2.04642196
H          -3.72329432      3.97554380      3.05139386
H          -3.47474373      3.51584427      1.32015275
C          -2.09734101      5.05871088      2.04080293
H          -1.83044781      5.40276747      1.01539334
C          -2.02481534      6.23702879      3.03893553
H          -2.26443806      5.91737170      4.06357809
H          -1.02599062      6.70651536      3.01442574
O          -1.16361804      4.10672270      2.51547472
H          -0.29000712      4.10582578      1.86718834
O          -4.52794369      5.20916066      1.60948471
H          -4.30843458      6.14949025      1.85500122
O          -2.98874551      7.21976978      2.58348425
H          -3.24770503      7.79849246      3.32140648
C           3.81832753     -5.65771001     -1.66883780
H           4.00416518     -6.50165066     -2.35225188
H           3.60086002     -6.05382446     -0.65000894
C           2.69771246     -4.72305469     -2.15504926
H           3.12377270     -3.74979782     -2.48735108
C           1.80959448     -5.33713814     -3.25680184
H           1.24495042     -6.21064433     -2.89389963
H           1.09757112     -4.58049612     -3.64728989
O           1.79124452     -4.50799612     -1.06080701
H           1.90659355     -3.56325492     -0.67634499
O           5.03068425     -4.90452454     -1.49014670
H           5.49291947     -4.81646897     -2.35421182
O           2.63300704     -5.66255934     -4.38034262
H           2.88828729     -6.60507874     -4.36293851
          96
 Energy =     -0.93527483 a.u.  #Cluster:   46
C           2.64909574      2.96919685      0.86147870
C           1.85044199      2.06683980      0.15758419
C           1.91410715      0.70290477      0.46352702
C           2.83032115      0.23414007      1.43385349
C           3.61278937      1.15690558      2.15532043
C           3.50604168      2.51667550      1.87239916
H           2.60152560      4.03460955      0.62440547
H           1.16933349      2.39775237     -0.63474609
H           4.28589570      0.78601196      2.92517079
H           4.10675835      3.22971455      2.43513846
O           3.06869903     -1.07182569      1.78426441
O           1.15575690     -0.20091423     -0.27419028
C           2.72686544     -2.10336208      0.81660463
H           2.95756652     -1.78056251     -0.20274093
H           3.36039557     -2.93487809      1.13803600
H           1.65765699     -2.34359592      0.90478273
C          -0.23615982     -0.38423246      0.09763702
H          -0.50485535     -1.14748941     -0.67999426
C          -1.03644150      0.92822898     -0.06915666
H          -0.62251198      1.72343044      0.60723694
O          -0.85629592      1.49184542     -1.36624328
H          -0.82584576      0.78351814     -2.07496698
C          -0.40058644     -0.96489639      1.50369681
H          -1.32509655     -0.62936321      2.01131413
H           0.46789172     -0.74974719      2.15743531
O          -0.49978037     -2.39615554      1.28615628
H          -0.56519481     -2.84886050      2.14760275
C          -2.52329925      0.74502656      0.17643420
C          -3.25744707     -0.24393921     -0.48215651
C          -3.18042752      1.61941151      1.05945808
C          -4.64488701     -0.30216869     -0.32407373
H          -2.75637173     -0.98779209     -1.10978719
C          -4.56159976      1.56384209      1.22883345
H          -2.58896903      2.34409412      1.63610179
C          -5.31033195      0.60899664      0.51932301
H          -5.08058756      2.23950755      1.90557475
O          -6.66367110      0.59390545      0.80372998
O          -5.35742055     -1.23768540     -1.08580040
C          -7.55186743      0.52700486     -0.34376780
H          -7.27569961     -0.29621474     -1.01348903
H          -8.52458410      0.35165408      0.12796104
H          -7.52678152      1.48792377     -0.86476562
C          -5.58571958     -2.49006760     -0.37652398
H          -6.10315873     -3.09658809     -1.12753281
H          -4.62906054     -2.93602311     -0.08707865
H          -6.21825476     -2.30244416      0.49659271
C           0.29372604      4.46864457      2.72858418
H           1.02856503      3.75258711      3.14867635
H          -0.41225594      3.93004675      2.06724647
C          -0.39101060      5.32935046      3.80354030
H           0.33958862      5.55189697      4.61347590
H          -0.64402583      6.31356093      3.33834934
C          -2.28327430      5.74958143      5.31529240
H          -3.23736752      5.36108114      5.73205275
H          -1.62951761      6.01135722      6.16009417
H          -2.53894260      6.67671792      4.77242176
C          -1.29018292      3.50993469      5.22660008
H          -2.14559810      3.04353485      5.71536240
H          -0.87070538      2.59860774      4.47900795
H          -0.48869318      3.67329410      5.94280823
C          -2.63566961      4.32767824      3.34206123
H          -3.61408044      4.04718417      3.78380053
H          -2.79602094      5.14300395      2.62363903
H          -2.28413857      3.42251011      2.77525627
N          -1.64185164      4.70735575      4.41770743
O           0.97756955      5.46659133      1.93978872
H           1.61912296      5.00869037      1.32879567
Cl         -0.44951463      1.54755997      3.25456831
C          -6.18307559      5.73425348      5.56426273
H          -7.10340913      5.96198028      4.99618082
H          -6.35645852      4.84093938      6.19141945
C          -5.70187236      6.94702376      6.38794501
H          -4.77440223      6.70481493      6.95081229
C          -5.50995603      8.21513374      5.53427062
H          -6.44116759      8.50046962      5.01396925
H          -5.14948658      9.06034570      6.14869076
O          -6.74901745      7.33139280      7.29194313
H          -6.74162119      6.76350206      8.09051487
O          -5.15000952      5.33127035      4.66080513
H          -4.85628444      6.13004010      4.13455105
O          -4.48338343      7.88332973      4.56602528
H          -4.48055579      8.55420762      3.84934370
C          -1.81564507     -1.49498029     -3.30560668
H          -1.51405032     -2.40408926     -3.85086497
H          -1.91236115     -1.74191801     -2.22521134
C          -3.11123749     -0.86995816     -3.86096927
H          -3.31025857      0.10818106     -3.36647680
C          -3.09208896     -0.71958697     -5.39646145
H          -3.54856871     -1.59805282     -5.88481422
H          -3.61487046      0.19766187     -5.72434665
O          -4.18477032     -1.78072949     -3.60621364
H          -4.60454629     -1.58507792     -2.71812898
O          -0.75486951     -0.53383366     -3.35396108
H          -0.70841457     -0.15653504     -4.28188683
O          -1.73888635     -0.52238071     -5.84796364
H          -1.34577220     -1.37713285     -6.12421314
          96
 Energy =     -0.92978091 a.u.  #Cluster:   47
C           3.34440415      2.97067951     -0.30042857
C           2.14071773      2.26046324     -0.31667523
C           2.11762392      0.95522721      0.17998535
C           3.28994340      0.36620116      0.70299772
C           4.49378808      1.07867186      0.70411905
C           4.51017212      2.38448424      0.20460040
H           3.37183513      3.98817490     -0.68965398
H           1.21985072      2.70566073     -0.71242554
H           5.39423566      0.60861699      1.09672236
H           5.44405875      2.94633589      0.20548594
O           3.28458276     -0.87491240      1.32810859
O           0.97149887      0.16610156      0.08372220
C           2.93003949     -1.98882347      0.45499908
H           3.63642898     -2.04500321     -0.38114387
H           3.06193825     -2.85428660      1.11703482
H           1.89725508     -1.87801315      0.10946933
C          -0.08214082      0.37890419      1.06464900
H          -0.57066325     -0.62646349      1.01992662
C          -1.00912032      1.50499126      0.52676938
H          -0.77438628      2.50019746      0.98444323
O          -0.77427426      1.72508894     -0.86517591
H          -0.31687437      0.93967471     -1.26738666
C           0.42384821      0.67624655      2.47848913
H          -0.41924550      0.92632979      3.15721258
H           1.15137372      1.50893499      2.49527134
O           1.00066572     -0.48931231      3.06363580
H           1.82871043     -0.74403579      2.55828588
C          -2.45885943      1.12882753      0.75626518
C          -3.15585475      0.38887527     -0.19540221
C          -3.08365597      1.51570785      1.95550237
C          -4.49720820      0.02284637      0.03826745
H          -2.68782520      0.10269987     -1.13926162
C          -4.41292749      1.18097599      2.18582139
H          -2.52585555      2.09129737      2.70100946
C          -5.12218506      0.43394724      1.23347562
H          -4.92007745      1.49460115      3.10139461
O          -6.41982735      0.04547352      1.57693027
O          -5.05681045     -0.67415021     -1.00035691
C          -7.46845791      0.82213199      0.92516923
H          -7.30684501      0.84783002     -0.15751787
H          -8.36861563      0.24279732      1.17704668
H          -7.49049721      1.82757687      1.35044205
C          -6.02192924     -1.71679919     -0.67738114
H          -6.13905093     -2.22465546     -1.64095376
H          -5.60845695     -2.39220085      0.08422050
H          -6.96681604     -1.28397710     -0.33644739
C          -5.78835811     -1.00380685      4.63722071
H          -5.82598864     -1.06295017      5.74152564
H          -4.74719393     -0.81781870      4.30705142
C          -6.41374627     -2.23214668      3.95995779
H          -7.22248730     -2.66282546      4.59105529
H          -6.96069106     -1.90124292      3.02286419
C          -6.17329711     -4.52477771      3.14144719
H          -5.56837820     -5.29835173      2.67964522
H          -6.83206685     -4.94694082      3.89398618
H          -6.98533192     -4.17641229      2.20682811
C          -4.54178356     -3.66778442      4.76579745
H          -3.92312685     -4.55577240      4.54837363
H          -3.86117541     -2.84561162      5.03577275
H          -5.15562941     -3.91157274      5.64874004
C          -4.54779807     -2.83500445      2.44204992
H          -3.77862495     -3.57485386      2.17336105
H          -5.17648418     -2.66706792      1.52228721
H          -4.05764026     -1.87519177      2.67344927
N          -5.42092137     -3.32227960      3.57752643
O          -6.57835466      0.14099678      4.34090290
H          -6.65636504      0.24545284      3.33907698
Cl         -7.86798239     -3.38418311      1.10045867
C          -0.40210148      3.70247502      4.32365994
H          -1.26406785      3.67192912      5.01322474
H           0.31621878      2.91138791      4.60565466
C           0.25698469      5.09514841      4.27757094
H           1.02812681      5.13849044      3.47601070
C          -0.76957033      6.23259458      4.10884712
H          -1.48576876      6.26568182      4.94578079
H          -0.26960029      7.21372346      4.01068559
O           0.84036087      5.36269446      5.56219163
H           1.75988194      5.02980481      5.59884596
O          -0.84282837      3.34019380      3.01014649
H          -1.27512156      4.14444884      2.58560761
O          -1.44438294      5.96394018      2.85930905
H          -2.37732840      6.25760308      2.91056383
C           5.60341926     -5.05629517      0.28999540
H           5.34394496     -5.48437787      1.27448490
H           5.08182357     -5.62422154     -0.50098038
C           7.12704562     -5.01098993      0.06056799
H           7.36643266     -4.45443985     -0.87272431
C           7.89573381     -4.42494771      1.26118777
H           7.78074379     -5.05067506      2.16111600
H           8.96961676     -4.30262331      1.02721824
O           7.62198133     -6.35845561     -0.01636641
H           7.51519337     -6.71169866     -0.92204940
O           5.06131423     -3.73680485      0.19636341
H           5.66646846     -3.10356591      0.68552220
O           7.35773596     -3.10119010      1.47416901
H           7.27734677     -2.92101013      2.43334691
          96
 Energy =     -0.92921987 a.u.  #Cluster:   48
C           3.34800808      2.86059708     -0.03576791
C           2.09180486      2.30065867     -0.28173826
C           1.92775200      0.91338680     -0.22662451
C           3.02337170      0.08209230      0.11645890
C           4.28237797      0.65187981      0.34763218
C           4.43636307      2.03865469      0.26915619
H           3.47920392      3.93959359     -0.09387229
H           1.23222007      2.92956006     -0.53329604
H           5.13866774      0.01908590      0.58286690
H           5.41646520      2.47950835      0.45182270
O           2.76212589     -1.25866371      0.26461568
O           0.73808230      0.36263617     -0.69992640
C           3.88066126     -2.18544387      0.12270886
H           4.63040160     -2.02433447      0.90543823
H           3.38057135     -3.15055855      0.27344844
H           4.32550167     -2.08951664     -0.87332071
C          -0.36305125      0.12903902      0.20322820
H          -1.01695897     -0.46615788     -0.48903617
C          -1.02683579      1.46692429      0.60496135
H          -0.49956011      1.95993856      1.45763871
O          -0.86340706      2.44494908     -0.44253077
H          -0.93830597      2.02181630     -1.33033696
C           0.00320935     -0.72603458      1.42293982
H          -0.83376028     -0.78876113      2.14698919
H           0.91951769     -0.36760314      1.92669385
O           0.18183594     -2.07825496      1.00010976
H           1.01012334     -2.13015982      0.44912094
C          -2.50868717      1.29913272      0.86591043
C          -3.34833306      0.82093711     -0.15401200
C          -3.04167768      1.66088571      2.10542969
C          -4.72404489      0.74624972      0.06765250
H          -2.95339871      0.50982020     -1.11997862
C          -4.42226729      1.60564918      2.32787942
H          -2.39092218      2.01680919      2.90597193
C          -5.26888062      1.17035643      1.30350876
H          -4.85733240      1.91924085      3.27658877
O          -6.62949752      1.13099988      1.57625859
O          -5.49779966      0.33586236     -1.00932275
C          -7.39079067      2.08249204      0.77240186
H          -7.37530892      1.77312451     -0.27705916
H          -8.38737377      2.01441287      1.21506203
H          -6.95840818      3.08827311      0.87917720
C          -6.35218984     -0.80712579     -0.72517961
H          -6.96925033     -0.86595725     -1.62736736
H          -5.72492486     -1.69506156     -0.60780591
H          -6.96134513     -0.62904809      0.16989572
C           4.96582220     -3.13876608     -3.47544266
H           5.12340740     -2.53380882     -4.38772772
H           4.06980461     -2.77148408     -2.93075257
C           4.82622808     -4.65168684     -3.82783238
H           5.22573073     -4.85350512     -4.84115836
H           5.49937412     -5.21093927     -3.11959942
C           3.44557468     -6.69897249     -3.93673914
H           2.44133011     -7.14604592     -3.89227017
H           3.89314605     -6.96508606     -4.92390583
H           4.06846703     -7.19742737     -3.16813297
C           2.52943662     -4.56149427     -4.76217589
H           1.51230536     -4.98664962     -4.75878149
H           2.43478751     -3.47252878     -4.58677767
H           2.94581282     -4.69876282     -5.77571885
C           2.82095623     -4.94362710     -2.34444797
H           1.75650403     -5.20483730     -2.29249925
H           3.36465702     -5.51956342     -1.55490735
H           2.95247109     -3.88187463     -2.04180237
N           3.41113954     -5.20351747     -3.71192024
O           6.10961145     -2.95788162     -2.70529735
H           6.02346347     -3.54339602     -1.74490148
Cl          5.43117058     -4.62050512     -0.59622685
C          -5.00934604      4.94064037     -0.99908142
H          -4.64403059      4.34931291     -1.85719683
H          -6.03060787      5.30089971     -1.21256313
C          -4.04714994      6.08915360     -0.63318940
H          -4.37542189      6.58340637      0.30743907
C          -2.57798673      5.63056857     -0.53500306
H          -2.17500123      5.35636563     -1.52369123
H          -1.94770549      6.41667760     -0.08033918
O          -4.02019158      7.04473429     -1.70957474
H          -4.82142817      7.60194074     -1.69131863
O          -5.16200736      4.08703492      0.13679354
H          -4.24003844      3.86085230      0.48477564
O          -2.55295054      4.50903735      0.36416301
H          -1.95329462      3.78708623      0.00134103
C           4.81822214     -9.18226955     -6.59044001
H           4.53004389     -9.82264730     -5.73765081
H           3.93489376     -9.00244845     -7.22719590
C           5.99193473     -9.77941082     -7.39197846
H           6.35220445     -9.05353911     -8.15350056
C           7.14998326    -10.25661382     -6.49177588
H           6.86216093    -11.14250623     -5.90156156
H           8.05345318    -10.48410207     -7.08883570
O           5.52983405    -10.98809532     -8.01344459
H           5.22319276    -10.81513730     -8.92646009
O           5.18295648     -7.88574800     -6.09714918
H           6.12800755     -7.93857148     -5.74716637
O           7.49188624     -9.14245984     -5.63897408
H           7.64696404     -9.45304653     -4.72065659
          96
 Energy =     -0.92833607 a.u.  #Cluster:   49
C           3.43368023      3.53812219     -0.07003292
C           2.25188773      2.83513859     -0.31009470
C           2.16636013      1.48433971      0.04954356
C           3.25947987      0.84815019      0.67943045
C           4.43887432      1.56626162      0.91861054
C           4.51748502      2.90882252      0.55317273
H           3.51544973      4.57886665     -0.38399978
H           1.39979653      3.31581108     -0.80152560
H           5.29191369      1.03779630      1.38004034
H           5.42930623      3.47697338      0.76065661
O           3.13978196     -0.44147699      1.16481681
O           1.06349070      0.73806815     -0.35788485
C           3.88355771     -1.45206094      0.41463622
H           4.94679011     -1.16724059      0.33727154
H           3.77634275     -2.33439791      1.05501532
H           3.42125731     -1.58167795     -0.56465712
C          -0.12145351      0.71362428      0.47346550
H          -0.60865541     -0.20527763      0.04970362
C          -0.93924706      1.99821352      0.19245727
H          -0.65709221      2.83221174      0.87842881
O          -0.58852158      2.52995508     -1.10224841
H          -0.14967501      1.82765352     -1.65619654
C           0.15097250      0.50962674      1.96916066
H          -0.78618352      0.57444729      2.55851839
H           0.89212833      1.22837918      2.36289178
O           0.59680145     -0.82211025      2.19071671
H           1.49666229     -0.93826439      1.75513667
C          -2.42698704      1.73607022      0.21370605
C          -2.99113923      0.79501157     -0.65985180
C          -3.23693560      2.44724064      1.10640009
C          -4.37102768      0.57665456     -0.63683656
H          -2.38072748      0.23084136     -1.36518114
C          -4.62036153      2.24818927      1.11866629
H          -2.79978697      3.17795794      1.78690066
C          -5.19452275      1.32465808      0.24157009
H          -5.26704383      2.81045405      1.79329558
O          -6.56672882      1.13651558      0.32491551
O          -4.85587595     -0.32564881     -1.57073192
C          -7.27610822      1.58024019     -0.87132342
H          -6.95811555      0.99093794     -1.73735119
H          -8.31940247      1.39782237     -0.60250074
H          -7.07171581      2.64581658     -1.04413706
C          -5.63934929     -1.41402843     -1.00467762
H          -6.01376011     -1.91941098     -1.90114905
H          -4.97643564     -2.06447786     -0.42765780
H          -6.45822236     -1.02709277     -0.38640190
C          10.64901062      3.52585518      1.92275936
H          11.68273716      3.28978823      2.23847873
H          10.58211982      3.41943001      0.81838698
C           9.64777138      2.63920143      2.67563064
H          10.02141091      1.58154209      2.67446263
H           9.59465083      2.95193178      3.74234958
C           7.40314958      1.66638285      2.89212700
H           6.41984234      1.46090564      2.39650628
H           7.86464566      0.64692557      2.92058017
H           7.21480317      2.01720011      3.91339016
C           8.28608526      2.25237861      0.63369881
H           7.27937215      1.98408099      0.24001443
H           8.71160260      3.04759342      0.00882690
H           8.85866429      1.30454635      0.47863688
C           7.61769345      4.01557983      2.21044031
H           6.61854164      4.04939885      1.71605511
H           7.43524809      4.30983528      3.25919962
H           8.25996180      4.79709731      1.76022441
N           8.23426166      2.64277159      2.09143911
O          10.37584847      4.91274374      2.12440344
H          10.66206680      5.20722527      3.01302357
Cl          7.33634775     -0.57612534      0.89032107
C           4.57482417      6.10088152      2.33954159
H           4.70384228      7.14921264      2.65766921
H           4.99155452      5.97401451      1.32419801
C           3.10613960      5.64132624      2.41451639
H           3.03456812      4.53783774      2.26518255
C           2.43628695      6.04740404      3.74229277
H           2.50367345      7.13257296      3.92524473
H           1.38070528      5.72770953      3.78538997
O           2.43266440      6.35149108      1.36816923
H           1.77193974      5.77144479      0.92846298
O           5.37746326      5.25663803      3.17695492
H           4.88735102      5.11311227      4.04000203
O           3.16567819      5.31618210      4.75402252
H           3.07139528      5.75683689      5.62165316
C          -5.14066207      3.11711579     -3.60238229
H          -4.82143064      2.06725226     -3.73358870
H          -6.13011791      3.25673087     -4.06913737
C          -4.09512376      4.11940739     -4.13203795
H          -4.37287682      5.15842242     -3.84460435
C          -2.67119011      3.78707759     -3.64813640
H          -2.36597550      2.76671083     -3.93296539
H          -1.93644124      4.51771520     -4.03264918
O          -4.00322139      4.01034566     -5.56306836
H          -4.76924445      4.44337086     -5.98733626
O          -5.36166464      3.36940325     -2.21130839
H          -4.46482323      3.46633164     -1.76156141
O          -2.73028074      3.91636495     -2.21506456
H          -1.99773539      3.37011157     -1.79528734
          96
 Energy =     -0.92104402 a.u.  #Cluster:   50
C           3.77080285      2.65140406      0.89974808
C           2.47245975      2.44204775      0.43822196
C           2.09072162      1.15255572      0.04547075
C           2.99762328      0.07870985      0.10394298
C           4.30371160      0.30097356      0.57833775
C           4.67588770      1.58103092      0.97951277
H           4.07652787      3.64317111      1.22330227
H           1.75318476      3.25428801      0.40078247
H           4.98584056     -0.55006025      0.66786868
H           5.67772274      1.75179219      1.37491440
O           2.67186680     -1.23403676     -0.17396596
O           0.80983959      0.96390117     -0.49517065
C           2.04968283     -1.49546876     -1.46114859
H           2.64926432     -1.07253744     -2.26713368
H           2.07790751     -2.60003763     -1.47636318
H           1.02950859     -1.10531590     -1.46563430
C          -0.26693391      0.60055354      0.42215464
H          -0.90115470     -0.01044460     -0.26292548
C          -0.93718440      1.94892528      0.80531649
H          -0.44677473      2.41297002      1.69414896
O          -0.73997996      2.89343065     -0.28257186
H           0.09014376      2.58596190     -0.78930015
C           0.11652878     -0.21389735      1.66332790
H          -0.70374444     -0.19146501      2.40815848
H           1.06189371      0.14741019      2.14810367
O           0.22094229     -1.58066147      1.29839217
H           1.18073582     -1.78332446      1.05810070
C          -2.42992514      1.82268637      0.96868154
C          -3.21586225      1.50174846     -0.14072071
C          -3.04192353      2.08060954      2.20819813
C          -4.61128527      1.51488525     -0.03978071
H          -2.74266021      1.26228774     -1.09482704
C          -4.42694362      2.06695125      2.32416032
H          -2.42774980      2.28277138      3.09183780
C          -5.23077160      1.79688329      1.19638704
H          -4.91998175      2.25136186      3.28141060
O          -6.57136236      1.93385510      1.44356082
O          -5.40130147      1.38107129     -1.17935025
C          -7.50143475      1.28683487      0.53589175
H          -7.31295856      0.20994013      0.51234667
H          -8.46507385      1.51854090      1.00674333
H          -7.42116969      1.72506385     -0.46492436
C          -5.18458676      0.15292665     -1.92932862
H          -5.96104076      0.21111207     -2.70046737
H          -4.18387939      0.15097292     -2.36959877
H          -5.33313085     -0.71571332     -1.27949829
C          -3.09698736      6.48497956     -3.70277178
H          -2.75353276      7.49567336     -3.99827122
H          -2.48836115      5.73125079     -4.24565767
C          -3.02368109      6.33253201     -2.17447703
H          -2.03039990      6.70225389     -1.81940464
H          -3.79061094      6.98835714     -1.69931346
C          -2.95135903      4.89244544     -0.17590375
H          -3.48028635      4.05434942      0.32635291
H          -1.87016667      4.70853581      0.04364189
H          -3.26744333      5.81919036      0.32255750
C          -2.26220774      3.96203353     -2.35524147
H          -2.17191272      2.99699438     -1.78587516
H          -2.57672866      3.72259986     -3.38288996
H          -1.23359949      4.36518534     -2.37241685
C          -4.64168470      4.45210414     -1.92244218
H          -4.76849433      3.36051135     -1.73248006
H          -5.36525990      4.97419181     -1.27625419
H          -4.94273081      4.63102300     -2.97852801
N          -3.22333561      4.90251785     -1.66652478
O          -4.41731016      6.24420814     -4.18159836
H          -4.98302949      7.04292517     -4.09309823
Cl          3.38773343     -1.98360565      2.38854257
C           1.19535947     -0.63875877      5.05743644
H           1.42748091     -1.68868373      4.79768784
H           0.28009487     -0.32809453      4.52902974
C           2.37627435      0.31220395      4.76255266
H           2.17032396      1.32608187      5.17265664
C           3.70401346     -0.24153566      5.32616588
H           3.93624681     -1.24476628      4.92415227
H           4.54104688      0.44494906      5.11828357
O           2.51237240      0.49678581      3.37296631
H           2.86407147     -0.43769584      2.89705897
O           0.84272274     -0.56597800      6.44817293
H           1.68514552     -0.54009930      6.98143265
O           3.54302234     -0.30216539      6.76773912
H           4.02386240     -1.07650430      7.11487937
C           5.73350475     -5.54574845      0.37045191
H           6.04948840     -5.07846464      1.32180115
H           6.37445732     -6.41541372      0.15452991
C           5.70582935     -4.52655977     -0.78721684
H           5.24989544     -4.98009305     -1.69393167
C           4.97474028     -3.23133613     -0.39087807
H           5.44167406     -2.74601395      0.48694817
H           4.92808112     -2.51831411     -1.23092064
O           7.04354968     -4.08705927     -1.10001524
H           7.57836934     -4.83459382     -1.41876196
O           4.42412475     -6.09233958      0.52771610
H           3.76760287     -5.31575871      0.54343946
O           3.63007269     -3.62942189     -0.07484950
H           3.28221517     -3.00820163      0.67899688
