          88
 Energy =     -0.84767986 a.u.  #Cluster:    1
C           2.31527809      2.56297396      0.08374308
C           1.00018476      2.14040160     -0.13977273
C           0.51249087      1.05906498      0.59409985
C           1.33840361      0.38717367      1.52284077
C           2.65187285      0.80827017      1.73627844
C           3.12831372      1.91013175      1.01625228
H           2.70999647      3.40495398     -0.48537859
H           0.36904393      2.62347071     -0.89075737
H           3.27935976      0.28386669      2.45480366
H           4.15003539      2.25221137      1.17868879
O           0.83371178     -0.65280264      2.30441436
O          -0.74362449      0.50520747      0.37256951
C           0.50598878     -1.85154712      1.53511277
H           1.42232245     -2.26322921      1.10428760
H           0.08444138     -2.51126927      2.29971423
H          -0.22604444     -1.60999067      0.75063177
C          -1.90592132      1.20490401      0.87796176
H          -2.64232143      0.34905997      0.78571288
C          -2.28436836      2.30535364     -0.15193323
H          -1.44926346      3.02991545     -0.31493519
O          -2.38614385      1.60589209     -1.37944371
H          -3.25913818      0.92835540     -1.37945802
C          -1.73845130      1.62544483      2.33866704
H          -2.64381523      2.11941697      2.74096325
H          -0.86075561      2.28071204      2.49056298
O          -1.60212245      0.47293418      3.18157313
H          -0.76030601     -0.03185045      2.92641860
C          -3.57306207      3.02304380      0.20289663
C          -4.71308510      2.80443939     -0.57965894
C          -3.64749797      3.86324958      1.32199376
C          -5.95793788      3.25094521     -0.13712173
H          -4.62377790      2.27522659     -1.54918414
C          -4.87781481      4.38316228      1.73278641
H          -2.74743614      4.13327878      1.87315482
C          -6.04085146      4.04554772      1.03567930
H          -4.95300368      5.03813787      2.59974630
O          -7.23828526      4.41227579      1.63344775
O          -7.16478629      2.89988638     -0.70346652
C          -8.19340702      5.06948468      0.75719680
H          -8.49992698      4.38647001     -0.04577418
H          -9.01995953      5.28952564      1.43986490
H          -7.75411988      5.98435662      0.35157498
C          -7.12695731      2.31957242     -2.04000910
H          -8.18454282      2.13138690     -2.23764588
H          -6.69658461      3.03688435     -2.75201886
H          -6.52720412      1.39750012     -2.04536630
C          -4.38379108     -0.86748017      1.91457067
H          -4.90279430     -1.79167549      1.60883202
H          -3.52193749     -0.72216762      1.21401186
C          -5.27885177      0.38428926      1.93739607
H          -5.00653447      1.00170383      2.82464682
H          -5.07448140      1.01587803      1.03205548
C          -7.53626165      1.30237214      2.39406560
H          -8.61566974      1.10865143      2.49116052
H          -7.17229313      1.70514190      3.35469159
H          -7.43587245      2.12467628      1.64618876
C          -7.04628718     -1.03438401      2.97882833
H          -8.10332363     -1.06881222      3.27840687
H          -6.77539459     -2.02766059      2.57385765
H          -6.42105774     -0.90187807      3.88789792
C          -7.23665629     -0.35263148      0.59945960
H          -8.29893420     -0.62597675      0.58375454
H          -7.07202918      0.46659238     -0.14074202
H          -6.63623395     -1.20016156      0.20294642
N          -6.77212682      0.06614531      1.97456939
O          -3.90759568     -1.10233615      3.23571514
H          -3.03835057     -0.59660136      3.36552665
Cl         -4.50413331     -0.27927467     -1.15106770
C          -2.76099478      3.51374278     -4.45900071
H          -2.60117214      2.59869114     -5.06203859
H          -2.39613720      4.39321226     -5.02307231
C          -4.23156134      3.66904032     -4.06409549
H          -4.34255902      4.33589410     -3.18629254
H          -4.83913307      4.05264082     -4.90435733
O          -1.90984562      3.48307596     -3.31757238
H          -2.18122997      2.73134726     -2.69291971
O          -4.83975330      2.44054082     -3.65241313
H          -4.31309850      1.63287755     -3.96948396
C          -1.58864263     -1.04421297     -3.09012953
H          -2.42388433     -1.50476809     -2.52382844
H          -1.08376716     -1.81481977     -3.69987740
C          -2.07531964      0.14877214     -3.92052602
H          -1.83388321      1.10786786     -3.40335049
H          -1.65976423      0.16645334     -4.94232369
O          -0.57003054     -0.62473487     -2.18382502
H          -0.93750155      0.04929564     -1.53660531
O          -3.50090103      0.11578938     -4.13887548
H          -3.96230548     -0.37226984     -3.40070375
          88
 Energy =     -0.84730519 a.u.  #Cluster:    2
C           3.29479159      2.33099080     -1.03801236
C           2.00114921      1.84757754     -1.24731114
C           1.76942648      0.47032245     -1.17554708
C           2.83102730     -0.42125116     -0.90998263
C           4.12406847      0.07049250     -0.70099472
C           4.34563638      1.44920257     -0.75882050
H           3.48548398      3.40180393     -1.09696086
H           1.17439266      2.51878322     -1.49103669
H           4.93545966     -0.62727285     -0.49488864
H           5.34992985      1.83933318     -0.59358180
O           2.63561010     -1.79063156     -0.75033698
O           0.51344158     -0.02546232     -1.49488897
C           2.20416625     -2.48072162     -1.96289907
H           2.95630256     -2.35491924     -2.74677039
H           2.13705196     -3.52048631     -1.62493863
H           1.22979922     -2.08989366     -2.29424386
C          -0.46902466     -0.17986091     -0.43270810
H          -1.05880026     -1.04660436     -0.84898705
C          -1.29970902      1.12684948     -0.44347204
H          -0.71981495      1.97128685     -0.00736977
O          -1.51990166      1.48702656     -1.79092576
H          -2.04207322      0.60508440     -2.39139426
C           0.10216704     -0.50156945      0.94818190
H          -0.67571184     -0.40531789      1.73426866
H           0.96864945      0.12796846      1.21603829
O           0.47674975     -1.88352386      1.01537919
H           1.29295621     -2.03021732      0.43768797
C          -2.65889073      0.96631170      0.21004967
C          -3.43763097     -0.16436519     -0.08265051
C          -3.19197792      2.00563142      0.97484461
C          -4.77010690     -0.21891774      0.31417662
H          -2.99098550     -1.00614881     -0.63578881
C          -4.51812867      1.94473757      1.41599400
H          -2.58605120      2.87256611      1.23028785
C          -5.32254368      0.85090628      1.07457098
H          -4.94568363      2.74169519      2.02120613
O          -6.61614315      0.97454647      1.52811745
O          -5.62659708     -1.25938963      0.01580290
C          -7.51083040     -0.15052241      1.33156317
H          -7.09762038     -1.04945781      1.80195800
H          -8.41958969      0.19089024      1.83752223
H          -7.67535990     -0.31120921      0.26006186
C          -5.14973920     -2.25184523     -0.93673436
H          -6.05088190     -2.85054625     -1.10323890
H          -4.80747386     -1.77430843     -1.86360007
H          -4.34434948     -2.84584077     -0.47884454
C          -5.44408189      1.91484220     -2.79554944
H          -5.81886696      1.32618291     -1.92975267
H          -6.23640428      2.60967629     -3.13064064
C          -4.15621720      2.63384525     -2.36938499
H          -4.35735066      3.25408283     -1.46954710
H          -3.39486555      1.85818921     -2.02298988
C          -2.29206201      4.17492511     -2.79473808
H          -1.70413687      4.74738193     -3.52815354
H          -2.59123381      4.83278461     -1.97004978
H          -1.58452509      3.39762665     -2.37947204
C          -4.43569110      4.51666127     -3.97551431
H          -3.93265710      5.21241465     -4.66694356
H          -5.25739347      4.03098816     -4.53802014
H          -4.88581594      5.11124293     -3.16462290
C          -2.96391476      2.63202190     -4.57753621
H          -2.65688869      3.23447179     -5.44026819
H          -2.05879875      2.04020718     -4.26156962
H          -3.72616048      1.88421947     -4.90056726
N          -3.47414090      3.47944728     -3.43769768
O          -5.25395455      1.05778184     -3.90549094
H          -4.58377449      0.30830581     -3.67624956
Cl         -2.79626302     -0.45992975     -3.27231619
C           0.84266061      1.49552597     -4.58569382
H           1.79960919      1.40165406     -4.03784191
H           0.96935046      2.18589952     -5.43727839
C           0.33007548      0.11832552     -5.02643196
H          -0.77555578      0.06441753     -5.00084074
H           0.69540685     -0.15673458     -6.03233694
O          -0.10583538      2.16738516     -3.75062044
H          -0.26081986      1.62755992     -2.88797891
O           0.87746250     -0.90972072     -4.19260754
H           0.47099714     -0.85515709     -3.28513508
C          -2.67995178     -3.02360264      1.49105249
H          -3.72345996     -3.17642412      1.14097081
H          -2.60581488     -2.06515120      2.03272690
C          -2.17991050     -4.20446522      2.32954477
H          -1.09616889     -4.12923233      2.53923212
H          -2.73512483     -4.31844580      3.27710511
O          -1.93979064     -2.95366262      0.26794025
H          -0.97465487     -2.73572450      0.46348647
O          -2.42145530     -5.44027315      1.64197411
H          -2.13748400     -5.33355675      0.70060492
          88
 Energy =     -0.84587506 a.u.  #Cluster:    3
C           3.15611767      3.90031334      0.71855918
C           2.19583860      3.22681715     -0.04109343
C           2.33561053      1.85159195     -0.25497285
C           3.44135345      1.15544111      0.28342706
C           4.40281205      1.83944163      1.03883272
C           4.24729891      3.20939873      1.25894222
H           3.05422369      4.97031033      0.89132254
H           1.34662691      3.75511608     -0.46956789
H           5.25821036      1.29163793      1.44462003
H           4.98849276      3.74469563      1.85310972
O           3.61132807     -0.21843742      0.19663321
O           1.45711507      1.18379944     -1.09273810
C           3.43817944     -0.79724296     -1.13393186
H           4.05639185     -0.26330870     -1.86717910
H           3.78327195     -1.82580344     -0.98963247
H           2.37405348     -0.76693978     -1.41509330
C           0.21394883      0.65028508     -0.53588803
H           0.15839907     -0.33782815     -1.08786718
C          -0.90370459      1.60657975     -1.02145274
H          -0.60394686      2.67119363     -0.88245455
O          -1.00238736      1.49463949     -2.44590290
H          -1.19480337      0.52368185     -2.70659676
C           0.24878277      0.40036965      0.97193444
H          -0.77304645      0.27364610      1.39196537
H           0.77742140      1.18784797      1.53666446
O           0.86216515     -0.87169977      1.23075369
H           1.82905537     -0.83458085      0.97447350
C          -2.24403307      1.29486481     -0.39710985
C          -2.83222011      0.03704425     -0.60886888
C          -2.90622332      2.26584968      0.35637155
C          -4.09060610     -0.23766376     -0.08080981
H          -2.28814342     -0.72755469     -1.18023912
C          -4.16762062      1.99778373      0.89776118
H          -2.45236872      3.24046286      0.52650617
C          -4.77312011      0.75447292      0.68014121
H          -4.69612888      2.74419816      1.48873075
O          -6.01782197      0.65866142      1.25911800
O          -4.76871440     -1.43087918     -0.25190771
C          -6.73458227     -0.59499130      1.13086281
H          -6.16264619     -1.40401782      1.59742606
H          -7.66071160     -0.38249305      1.67564089
H          -6.92444388     -0.81086090      0.07371980
C          -4.01343073     -2.53476316     -0.81613876
H          -4.72260440     -3.36296096     -0.72645447
H          -3.76991306     -2.32278373     -1.86129443
H          -3.10114704     -2.71261316     -0.22490718
C          -0.73680795     -1.07098255     -4.73191052
H          -1.64248613     -1.47653927     -5.22845821
H           0.12761328     -1.73375265     -4.93942688
C          -0.50567166      0.37776495     -5.21395602
H          -0.90744325      0.50365283     -6.24040522
H          -1.10786700      1.05520975     -4.54385771
C           1.00756432      2.27452257     -5.65807539
H           2.04658297      2.65174907     -5.64882880
H           0.61258865      2.38972866     -6.67870446
H           0.41890743      2.93123830     -4.98729463
C           1.77778658     -0.02034885     -6.11614831
H           2.86403319      0.11244537     -5.93654819
H           1.60149030     -1.10477206     -5.92963621
H           1.56166607      0.18461946     -7.17267474
C           1.50559431      0.78342767     -3.78490156
H           2.59503961      0.94460359     -3.75322726
H           1.00711435      1.52685504     -3.11196457
H           1.32291031     -0.19877432     -3.29355444
N           0.95121644      0.83375512     -5.18371674
O          -1.03564998     -1.06274856     -3.35058600
H          -0.23360768     -1.54294504     -2.78428026
Cl          3.08604783     -2.04088387     -4.06824899
C           6.98181739      0.00401884     -0.94550443
H           8.06015190      0.15511626     -0.75749130
H           6.49201913      0.97956448     -1.13161544
C           6.72837389     -0.95823269     -2.11380204
H           7.64779095     -1.18018568     -2.68263121
H           6.26846401     -1.90198279     -1.77090749
O           6.51585695     -0.55497032      0.28542968
H           5.52108907     -0.55694117      0.31143704
O           5.83294496     -0.25766528     -3.00150348
H           5.32251420     -0.90263032     -3.54752207
C           0.92616995     -3.26239633     -1.52270331
H           1.61281882     -3.17551540     -0.65712720
H           1.25737007     -4.09664986     -2.16741588
C          -0.52478304     -3.44533141     -1.07285529
H          -1.22256774     -3.47472564     -1.93268499
H          -0.64086903     -4.35893071     -0.46023819
O           1.03907119     -2.03814167     -2.24354199
H           1.89963570     -2.13962002     -3.07837471
O          -0.99683493     -2.33449428     -0.30817027
H          -0.27914022     -1.98820298      0.30629599
          88
 Energy =     -0.83710237 a.u.  #Cluster:    4
C           0.52128160      3.86099902     -2.14137666
C          -0.21061856      2.68503026     -1.95607305
C           0.37994630      1.61864195     -1.27367899
C           1.69746192      1.73021473     -0.77761253
C           2.42608620      2.90857936     -0.97026859
C           1.82637832      3.97338174     -1.64930507
H           0.06876297      4.69716475     -2.67339747
H          -1.23672745      2.58314554     -2.33132693
H           3.44009482      2.98108323     -0.57870955
H           2.38560964      4.89718099     -1.79736537
O           2.28882906      0.75011655      0.01276985
O          -0.27017119      0.39223053     -1.15194581
C           2.44471153     -0.54532493     -0.63500745
H           3.13462229     -0.44739962     -1.47672135
H           2.87483295     -1.15273266      0.16976472
H           1.46818099     -0.93047009     -0.95504515
C          -1.27852768      0.25932666     -0.10885309
H          -1.24564690     -0.85173303      0.02428242
C          -2.63474672      0.73974924     -0.69019928
H          -2.90460251      1.78528878     -0.37825995
O          -2.55934464      0.85349266     -2.11489390
H          -1.85968343      0.25065548     -2.47608020
C          -0.93313713      0.96896008      1.20495994
H          -1.77263577      0.89405307      1.92831059
H          -0.67589280      2.03303469      1.05183423
O           0.13374579      0.30159699      1.87380732
H           0.97927179      0.41111312      1.35152184
C          -3.74119964     -0.21855716     -0.30722882
C          -4.09606971     -1.27402301     -1.15525054
C          -4.45897764      0.00903374      0.87669216
C          -5.18834740     -2.06768493     -0.81446199
H          -3.56281047     -1.44964352     -2.09583529
C          -5.54889507     -0.79010004      1.22402328
H          -4.19038081      0.84974437      1.52320333
C          -5.92387117     -1.83435728      0.37187266
H          -6.13302275     -0.55524566      2.11384423
O          -6.98412134     -2.69359115      0.54562389
O          -5.63197770     -3.00711877     -1.75693369
C          -7.89658259     -2.41900447      1.64276942
H          -8.69735626     -3.14143222      1.45130617
H          -7.39624095     -2.61411591      2.59427775
H          -8.26787889     -1.38467611      1.58641087
C          -5.50299067     -4.39432728     -1.32802503
H          -5.90310934     -4.94509823     -2.18568008
H          -4.44891609     -4.62589848     -1.15444719
H          -6.10682697     -4.55333976     -0.42583158
C          -8.49900682     -1.01015896     -1.78812910
H          -7.68927676     -0.26367877     -1.96425393
H          -8.56716636     -1.21729285     -0.70003013
C          -9.85535229     -0.63877414     -2.38992456
H         -10.12277637     -1.44273081     -3.12609209
H         -10.63410917     -0.65376839     -1.59337049
C         -11.22663969      0.79151719     -3.83724409
H         -11.33205327      1.74694057     -4.37916210
H         -11.30372261     -0.01543861     -4.58858150
H         -12.08434624      0.70237186     -3.14936861
C          -8.78220679      0.87455035     -4.08287325
H          -8.89512884      1.77068130     -4.70437216
H          -7.79492834      0.98037630     -3.54316259
H          -8.66966744     -0.01454298     -4.74553233
C          -9.84988226      1.84388911     -2.08221640
H         -10.32703658      2.76204093     -2.44372313
H         -10.28374899      1.56345604     -1.10498032
H          -8.77883346      2.11300199     -1.83820914
N          -9.90562680      0.72142205     -3.09173023
O          -8.15330243     -2.24556689     -2.45760772
H          -7.34422181     -2.64473732     -2.00082402
Cl         -7.97449598      1.04354300      0.48632996
C          -6.42779915     -1.97317620     -5.56134138
H          -6.48788212     -1.62199909     -6.60642224
H          -6.25834658     -3.06673491     -5.55515139
C          -5.33776078     -1.24754274     -4.75811415
H          -4.68099248     -0.63550456     -5.40355270
H          -5.76615127     -0.60959837     -3.96315092
O          -7.73457719     -1.69996338     -5.04718697
H          -7.80404229     -2.00292165     -4.08184911
O          -4.43627062     -2.20472853     -4.19316231
H          -4.84878679     -2.63174370     -3.39519375
C          -5.59150125      2.13464788     -2.10211214
H          -5.50255301      2.48683810     -3.14492282
H          -4.87806909      1.30181790     -1.93866277
C          -5.35086749      3.28109367     -1.10946591
H          -4.47646612      3.89359941     -1.39436314
H          -6.24545191      3.92017410     -1.01195599
O          -6.91201525      1.62828524     -1.99925284
H          -7.17251014      1.37273487     -0.93227981
O          -4.98767109      2.78742484      0.18739747
H          -5.76175853      2.31110086      0.58964015
          88
 Energy =     -0.83335525 a.u.  #Cluster:    5
C           2.13455875      2.20915059      1.98501175
C           0.90393858      1.85468944      1.43874567
C           0.67597429      0.53219703      1.03667540
C           1.70293605     -0.43106467      1.13925882
C           2.94942212     -0.05733787      1.68375865
C           3.15037892      1.25020295      2.11340112
H           2.30814919      3.23173378      2.31655404
H           0.11257634      2.60012677      1.30147677
H           3.73244187     -0.81004046      1.76315114
H           4.10773008      1.53222895      2.55237215
O           1.67151969     -1.74836448      0.75803095
O          -0.54323191      0.14181541      0.47482259
C           0.46534915     -2.25673935      0.13279786
H           0.18316859     -1.63129494     -0.72135564
H           0.78303318     -3.25639279     -0.18397189
H          -0.34120020     -2.30166597      0.87076571
C          -1.73322359      0.27247494      1.30283694
H          -2.36016253     -0.54987958      0.86356846
C          -2.36231801      1.66555129      1.04213341
H          -2.21877127      2.34602208      1.92798335
O          -1.66640958      2.34615323     -0.00604071
H          -1.24517155      1.68884755     -0.62056326
C          -1.45241166     -0.01269790      2.78894826
H          -0.67691126      0.66564381      3.20957231
H          -1.11956291     -1.05955479      2.92955924
O          -2.61058279      0.21294740      3.56235289
H          -3.44512754     -0.49634465      3.21159401
C          -3.84013180      1.63018417      0.69388372
C          -4.48999201      0.45759996      0.30261617
C          -4.56633221      2.82862431      0.80365723
C          -5.87392770      0.45825024      0.09440763
H          -3.92505628     -0.47711891      0.20904721
C          -5.93531542      2.85195350      0.54794055
H          -4.04936013      3.74768268      1.09138905
C          -6.60194949      1.66290146      0.21959310
H          -6.49967920      3.78145832      0.59346515
O          -7.98684747      1.76257501      0.18183714
O          -6.61789485     -0.68064629     -0.16696696
C          -8.63907303      1.09518498     -0.93223883
H          -8.47836380      0.01075092     -0.86488955
H          -9.69014946      1.35821803     -0.77743888
H          -8.26077341      1.49404617     -1.87676678
C          -5.89536714     -1.82440517     -0.70245111
H          -6.70582962     -2.54557356     -0.86023499
H          -5.40911768     -1.55428775     -1.64249240
H          -5.17760200     -2.19486941      0.04368044
C          -5.43209669      1.38931778      4.53628612
H          -4.41648465      1.15081726      4.12739387
H          -5.51780605      2.49026884      4.62182497
C          -6.49874921      0.73769556      3.65652474
H          -6.20076777      0.81721786      2.58230925
H          -6.52671395     -0.37215317      3.86997943
C          -8.84832105      0.56064305      2.91351965
H          -9.89202367      0.86712031      3.05294367
H          -8.58085405      0.72700422      1.84594065
H          -8.79068706     -0.55232730      3.06970968
C          -7.94063381      2.76369189      3.51902055
H          -8.92166721      3.20990926      3.74050373
H          -7.17027903      3.31598412      4.09041455
H          -7.73662777      2.92854103      2.43934989
C          -8.36047344      1.05759625      5.26996615
H          -9.32415140      1.53597262      5.48228386
H          -8.46607732     -0.03485411      5.46922973
H          -7.60312465      1.42504259      5.99643948
N          -7.90923109      1.28725076      3.84510734
O          -5.54235603      0.91875886      5.88370971
H          -5.05461445      0.07094094      5.98536661
Cl         -4.60088196     -1.47499006      2.62110057
C          -7.47236265     -3.09876137      2.80021858
H          -6.50390496     -3.46887783      2.40920697
H          -8.24515419     -3.88322092      2.69845934
C          -7.32230967     -2.62585358      4.24893083
H          -7.04140364     -3.45158383      4.92570402
H          -6.57557680     -1.80106078      4.34324286
O          -7.96670850     -2.03198276      1.98487747
H          -7.22144107     -1.55102925      1.52511497
O          -8.52684155     -2.01251702      4.74555252
H          -9.30323749     -2.57238675      4.54609898
C          -1.98656938      3.44344159      4.45781690
H          -2.41755984      4.28931160      5.02159464
H          -1.31256952      3.83944699      3.67303217
C          -1.25060349      2.44753649      5.36208802
H          -1.08499409      2.83961849      6.38075080
H          -1.78909263      1.47822514      5.41970376
O          -3.11625637      2.85310156      3.81069349
H          -2.95583574      1.84678725      3.64202510
O           0.08330916      2.23696701      4.87967834
H           0.06191958      1.70103947      4.04428800
          88
 Energy =     -0.82874560 a.u.  #Cluster:    6
C           3.42318420      1.27411100      0.28678320
C           2.20938886      1.23433860     -0.40769455
C           1.80696378      0.03571837     -1.00197372
C           2.62420322     -1.11343937     -0.91198773
C           3.83627300     -1.06710862     -0.21737005
C           4.22339801      0.13172231      0.38956710
H           3.74451955      2.20551704      0.75394217
H           1.57156696      2.11659613     -0.47948386
H           4.45165929     -1.96368466     -0.15107553
H           5.16205631      0.17226013      0.94354667
O           2.23091122     -2.35902820     -1.40035231
O           0.64211272     -0.02459038     -1.75960694
C           1.97798196     -2.38875403     -2.83483866
H           2.90417408     -2.16392290     -3.36998823
H           1.66674923     -3.42600910     -2.99494914
H           1.18282509     -1.67705074     -3.09333864
C          -0.60888165     -0.28169982     -1.04222253
H          -1.18059199     -0.79309719     -1.85257287
C          -1.20403472      1.11106387     -0.70689447
H          -0.55536321      1.64543314      0.03897086
O          -1.22871243      1.89350689     -1.91320462
H          -0.39105448      1.73062446     -2.41384358
C          -0.46801854     -1.15930044      0.19638814
H          -1.40177756     -1.14251148      0.81198874
H           0.36138830     -0.84439662      0.86626284
O          -0.31942432     -2.53717140     -0.16718582
H           0.57935632     -2.67029340     -0.59351473
C          -2.62892876      1.00533087     -0.21725387
C          -3.62476359      0.43945890     -1.01769401
C          -2.93415354      1.45638429      1.07730582
C          -4.91447555      0.25828259     -0.49511303
H          -3.42241506      0.15020820     -2.04968713
C          -4.22158235      1.31289471      1.59090033
H          -2.14020883      1.89746700      1.70111729
C          -5.20682893      0.68208844      0.82108711
H          -4.44272083      1.66388107      2.59834275
O          -6.46129894      0.33187627      1.31339454
O          -5.75439957     -0.46618002     -1.31812789
C          -7.02840154      1.21253190      2.31917127
H          -7.05968467      2.24076933      1.94827584
H          -8.03839447      0.80252890      2.43911562
H          -6.45951396      1.13296270      3.25151284
C          -7.16594728     -0.13479399     -1.26787168
H          -7.56160389     -0.70049207     -2.11877439
H          -7.59169315     -0.47785037     -0.31724417
H          -7.31278103      0.93990541     -1.39962186
C          -4.29212440     -1.90297376      2.72561222
H          -3.94173333     -2.51370043      3.57932267
H          -4.10171061     -0.83822412      2.97352942
C          -3.64798730     -2.26801133      1.38331762
H          -4.35645238     -2.01862073      0.55821344
H          -2.72679942     -1.62912840      1.22528676
C          -2.90973311     -4.03226087     -0.17539919
H          -2.64246416     -5.08904375     -0.32490333
H          -3.74757019     -3.78667042     -0.84720811
H          -2.02276956     -3.42979397     -0.50621328
C          -4.38916737     -4.62563323      1.70093807
H          -4.17438586     -5.68884955      1.52468378
H          -4.61956629     -4.49127439      2.77772018
H          -5.32335583     -4.35313913      1.17351755
C          -2.02662401     -4.01504562      2.12216546
H          -1.73424351     -5.07167067      2.09634058
H          -1.15349145     -3.40278414      1.78003915
H          -2.18426149     -3.70837687      3.17750570
N          -3.24343193     -3.73632544      1.27148416
O          -5.70077519     -2.15624518      2.64591347
H          -6.14721734     -1.40321595      2.17191236
Cl         -1.47959806     -1.18012294      3.46916525
C           1.71626878      0.17381371      3.31118079
H           1.55347275     -0.71489493      2.67430052
H           2.79350210      0.40439685      3.36634258
C           0.87427403      1.36756646      2.83556145
H           0.50339177      1.95576110      3.70183878
H           1.44293403      2.02932004      2.15953758
O           1.37954804     -0.15932140      4.67198670
H           0.47418014     -0.58937143      4.69612207
O          -0.22848915      0.92667351      2.06018779
H          -0.81542867      0.22291045      2.63751743
C           3.19051087      3.50877831      6.99424654
H           3.99802734      4.23445011      6.79222998
H           2.27878568      4.03555269      7.33600822
C           2.88361358      2.62219393      5.78238729
H           3.02638049      3.16860331      4.83288448
H           3.50192081      1.70706031      5.78386431
O           3.72061702      2.73049897      8.07691831
H           3.05975620      2.05721713      8.34977447
O           1.49220583      2.28707065      5.87171286
H           1.35165517      1.33574229      5.55320789
          88
 Energy =     -0.82857534 a.u.  #Cluster:    7
C           2.65241791      2.92171838      0.05971104
C           1.55738259      2.05511693     -0.00524236
C           1.60206808      0.85171558      0.70178849
C           2.74695646      0.51651299      1.45755809
C           3.84060328      1.38300944      1.51837283
C           3.78000446      2.59374882      0.82029107
H           2.62465739      3.86276388     -0.49048946
H           0.66927072      2.29663495     -0.60509953
H           4.71224368      1.10986507      2.11136075
H           4.62342895      3.28252147      0.86755521
O           2.79066877     -0.63395097      2.24905434
O           0.59286154     -0.10157578      0.60300392
C           2.76738715     -1.87620891      1.48553900
H           3.65874730     -1.93088110      0.85547086
H           2.78740277     -2.63491433      2.27442971
H           1.84783023     -1.93108564      0.88779977
C          -0.63817533      0.11897921      1.34774035
H          -1.04294139     -0.92603490      1.31552192
C          -1.54387464      1.10653884      0.55746955
H          -1.41568590      2.16481153      0.88966588
O          -1.12198066      1.16669376     -0.80664726
H          -0.78776820      0.28918752     -1.10895441
C          -0.40748786      0.56056407      2.79413300
H          -1.37430523      0.64529053      3.34661612
H           0.15212651      1.50862968      2.87049748
O           0.29921593     -0.46185143      3.51278039
H           1.20924721     -0.59938818      3.09860083
C          -2.98430482      0.66315913      0.67769462
C          -3.54136307     -0.22746709     -0.24861446
C          -3.74572685      1.13039374      1.75276278
C          -4.85091169     -0.68803326     -0.06715184
H          -2.98008596     -0.55961104     -1.12022284
C          -5.04780520      0.66102775      1.95138204
H          -3.33186792      1.84696437      2.46469532
C          -5.60019942     -0.26236889      1.06262239
H          -5.60506175      1.00214607      2.82329422
O          -6.87396936     -0.79321376      1.18736839
O          -5.25463466     -1.54762581     -1.06790725
C          -7.47686941     -0.73013538      2.50619886
H          -7.83914136      0.28397021      2.69001985
H          -8.30367297     -1.44124550      2.41344988
H          -6.76964370     -1.04647845      3.29112380
C          -6.62120481     -2.02733357     -1.03526339
H          -6.68837882     -2.58715705     -1.97371064
H          -6.76607907     -2.67179393     -0.16215167
H          -7.32023642     -1.18403730     -1.01511459
C           0.32735405     -2.04429612      5.96371811
H           0.70874311     -2.52085076      6.88460011
H           0.85836520     -2.46273056      5.08493800
C          -1.18763048     -2.20948772      5.76230225
H          -1.53164031     -1.43866989      5.00755097
H          -1.41188502     -3.19911616      5.31201359
C          -3.44910166     -2.37749226      6.72552246
H          -4.11176309     -2.07123900      7.56705829
H          -3.81898655     -1.83408423      5.82555856
H          -3.58659298     -3.45454480      6.55437939
C          -1.90761771     -0.60828327      7.52884924
H          -2.39247728     -0.48466132      8.51782706
H          -0.85001239     -0.27835449      7.58792777
H          -2.41117932      0.10026885      6.83383275
C          -1.53355695     -2.96326864      8.12749624
H          -2.25092585     -2.95314016      8.98780185
H          -1.47273032     -4.00581308      7.78199975
H          -0.54974271     -2.66070612      8.51958900
N          -2.00965942     -2.03063582      7.03575411
O           0.66961182     -0.67224050      6.11702849
H           0.56501484     -0.21213383      5.21691186
Cl         -3.54235241      0.37970558      4.72692375
C          -4.48939483     -1.79347483     10.58418868
H          -5.37060194     -1.32367185     11.05929753
H          -3.61052040     -1.68465296     11.24764224
C          -4.76111177     -3.26329697     10.23516596
H          -5.44209993     -3.74616273     10.95650377
H          -5.17557375     -3.37299787      9.21324682
O          -4.12741224     -1.05312322      9.42489780
H          -4.94080414     -0.92518965      8.80387522
O          -3.53595429     -4.01464092     10.16616375
H          -3.16328150     -4.13994090     11.06119531
C          -6.79216671      0.42131915      5.83077497
H          -7.85039833      0.17315278      5.63776066
H          -6.52250056      1.36833290      5.33518684
C          -6.48096198      0.45068961      7.34510365
H          -5.59055597      1.05927959      7.57701050
H          -7.33375891      0.75795657      7.96736411
O          -6.04195809     -0.65715236      5.29450533
H          -5.00391059     -0.26614197      4.98223902
O          -6.18299771     -0.90859820      7.74979129
H          -5.96668326     -1.41080646      6.86419793
          88
 Energy =     -0.82795186 a.u.  #Cluster:    8
C           3.70542901      1.82359365      0.55651155
C           2.51426420      1.62773312     -0.14093939
C           2.10645088      0.32907613     -0.46501017
C           2.91884799     -0.77975861     -0.13988288
C           4.11394270     -0.57076751      0.57777328
C           4.49085454      0.72325613      0.92750223
H           4.02544555      2.83029473      0.81285438
H           1.89082167      2.47271879     -0.45092999
H           4.72420864     -1.43169668      0.84467683
H           5.41183678      0.88154321      1.48791532
O           2.68526304     -2.10183199     -0.42046936
O           0.94508197      0.13566109     -1.20982225
C           1.75120033     -2.43358902     -1.48557581
H           1.90218280     -1.78998845     -2.35362483
H           2.01202484     -3.47762303     -1.69166258
H           0.71855247     -2.34825590     -1.11679248
C          -0.32750114      0.16525075     -0.50954085
H          -0.97190371     -0.19864522     -1.35396308
C          -0.69520366      1.61789039     -0.12826003
H          -0.12908025      1.95090322      0.77499230
O          -0.16926196      2.44718352     -1.18712703
H          -0.89760009      2.88440569     -1.70922129
C          -0.37673197     -0.81342474      0.68113726
H          -0.36200496     -0.30420129      1.66141142
H           0.46819054     -1.53004040      0.63333163
O          -1.60148576     -1.52249504      0.66923454
H          -1.69697770     -2.09003900     -0.23367109
C          -2.17975871      1.85362122      0.03194236
C          -3.10920056      0.82840682     -0.15068249
C          -2.63621628      3.14967700      0.32817838
C          -4.47902793      1.09224442     -0.11478972
H          -2.77631194     -0.22297789     -0.29078838
C          -3.99998494      3.42833570      0.37561419
H          -1.91599538      3.94384108      0.52809890
C          -4.93857037      2.40418763      0.14608680
H          -4.36820298      4.42654278      0.60854703
O          -6.23601671      2.85299100      0.15745588
O          -5.40927133      0.09752212     -0.39594505
C          -7.29090001      1.85888515      0.22031202
H          -7.16992114      1.23530841      1.11069847
H          -8.18679986      2.48642066      0.28271630
H          -7.28220769      1.24484737     -0.68668749
C          -5.12083427     -1.19536362      0.22024676
H          -5.96997834     -1.80152856     -0.10523004
H          -4.16452903     -1.59854717     -0.15614181
H          -5.08633400     -1.08874662      1.30726763
C          -2.35032636      1.70600899     -4.49651873
H          -1.33908098      1.98728594     -4.10616534
H          -2.22034868      1.38049918     -5.54498495
C          -2.95838371      0.62884520     -3.59393079
H          -2.21244340     -0.22000744     -3.49142280
H          -3.10719537      1.02775592     -2.56420143
C          -4.62929493     -1.18995708     -3.33080276
H          -5.66034351     -1.51714760     -3.51266228
H          -3.94355881     -2.03053108     -3.58408048
H          -4.50156133     -1.03918618     -2.23528249
C          -4.17651131     -0.28930860     -5.56732283
H          -5.02908939     -0.89665797     -5.90413347
H          -4.12931890      0.61875300     -6.19569842
H          -3.24139593     -0.86415633     -5.75627580
C          -5.37700753      1.08552889     -3.88563391
H          -6.32009631      0.79056495     -4.36360398
H          -5.56745515      1.23311232     -2.80408033
H          -5.06676117      2.07669132     -4.29764930
N          -4.28279679      0.06316364     -4.09948582
O          -3.19907639      2.85356909     -4.56579492
H          -2.98726325      3.45927788     -3.79139653
Cl         -2.07314952     -2.36112256     -1.97923093
C           1.06466977      0.40176564     -4.25884627
H           1.93701245      0.03646366     -3.68363595
H           1.39999468      0.79531449     -5.23635731
C           0.02030007     -0.70787760     -4.42835020
H           0.47706091     -1.70778526     -4.52764426
H          -0.71137801     -0.73635736     -3.58398134
O           0.51890888      1.54668199     -3.60384070
H           0.57604824      1.43715111     -2.59279918
O          -0.82922205     -0.48241401     -5.57335416
H          -0.29107371     -0.41625623     -6.38367473
C          -2.24932416      6.38865581     -3.13500734
H          -1.73047810      7.35632224     -3.19431727
H          -2.87733171      6.24287503     -4.03773561
C          -1.30903252      5.20188621     -2.89172339
H          -0.80764315      4.83653400     -3.80763780
H          -0.55355818      5.39902892     -2.10977224
O          -3.21039950      6.36848668     -2.06607931
H          -2.88151250      6.86098588     -1.28485941
O          -2.10983718      4.08536829     -2.44860625
H          -2.82715362      4.43328756     -1.82716284
          88
 Energy =     -0.82641513 a.u.  #Cluster:    9
C           3.34235108      2.69887999     -0.74314747
C           2.32200915      1.82818702     -1.13297678
C           2.08413826      0.66466862     -0.39207948
C           2.87671980      0.37884041      0.74325181
C           3.91301257      1.24371427      1.11241269
C           4.13486026      2.40700130      0.37380136
H           3.52899308      3.60476520     -1.31850775
H           1.72548498      2.02345169     -2.02417206
H           4.53424395      1.02741041      1.99229067
H           4.92937598      3.09132993      0.68530906
O           2.51617891     -0.71122941      1.52249357
O           1.17236766     -0.27813599     -0.85357925
C           3.61418485     -1.56156498      1.96391433
H           4.18456966     -1.03574965      2.75358387
H           3.09173931     -2.43208099      2.37009059
H           4.25134181     -1.83282042      1.11848199
C          -0.22094750     -0.13213633     -0.50125406
H          -0.61042775     -1.08947322     -0.94351153
C          -0.90708012      1.06958391     -1.19890697
H          -0.19949001      1.91767798     -1.34459707
O          -1.23978559      0.55004915     -2.50010342
H          -1.86542619      1.15026687     -2.95684786
C          -0.37663186     -0.10037154      1.02393816
H          -1.43323405      0.00895028      1.36208718
H           0.24465702      0.70209647      1.48363724
O           0.01302763     -1.35928031      1.58445466
H           0.93163689     -1.59635545      1.23194015
C          -2.16316796      1.48504792     -0.46558318
C          -3.22537396      0.56491853     -0.38834864
C          -2.24679518      2.71589220      0.18282372
C          -4.34135431      0.85497714      0.38778752
H          -3.14343162     -0.38065144     -0.92960654
C          -3.38625174      3.03737890      0.92962144
H          -1.43287899      3.43880853      0.11732674
C          -4.43435262      2.11707378      1.04628128
H          -3.47458257      4.00078499      1.43348941
O          -5.45509100      2.56075481      1.85001430
O          -5.38890319     -0.01843048      0.61147597
C          -6.67623546      1.77933695      1.89721542
H          -6.48289158      0.82150843      2.39119213
H          -7.33155726      2.42285064      2.49623651
H          -7.07154106      1.62609218      0.88774075
C          -5.26809054     -1.35071833      0.04246101
H          -5.30856709     -1.29594536     -1.04874205
H          -4.34559444     -1.84124349      0.39240151
H          -6.15765879     -1.84585415      0.44792411
C           1.31857565      3.23086576      3.53157836
H           1.73000011      3.65560811      2.59113261
H           0.25792206      3.52509872      3.64028667
C           1.50395948      1.70256570      3.48936828
H           1.04099705      1.29098129      2.55518496
H           2.60244264      1.46570390      3.39854500
C           1.17797995     -0.53571647      4.44458518
H           0.80020413     -1.15050758      5.27144425
H           0.67957508     -0.87419859      3.50910816
H           2.27188499     -0.74133106      4.32643937
C          -0.50989991      1.21295536      4.87759880
H          -0.93181308      0.62441395      5.70978239
H          -0.69761212      2.28058603      5.08814148
H          -1.09796490      0.92334457      3.98443033
C           1.71370426      1.33628238      5.94410154
H           1.30975857      0.85471985      6.84053295
H           2.79475947      1.05657300      5.84484983
H           1.70205070      2.44593364      6.07903291
N           0.96414883      0.94194577      4.69362383
O           1.96219306      3.81632447      4.64188980
H           3.01367935      3.74247272      4.52741722
Cl          4.63980523      2.97306661      4.07055351
C           6.50253927     -0.05156181      4.47813083
H           6.80884951      1.00737695      4.59325205
H           7.32304318     -0.72116341      4.78260421
C           5.18372695     -0.34146259      5.21446854
H           4.93217455     -1.41646808      5.20320783
H           5.21409000      0.02414101      6.25588470
O           6.33622508     -0.32086012      3.07869246
H           5.54084579      0.19883469      2.76038562
O           4.11614011      0.29087366      4.52347536
H           4.34682889      1.39993793      4.40296183
C          -2.98613867     -2.36419662      2.79330479
H          -2.24801188     -2.75514907      3.51753495
H          -3.91465860     -2.95941881      2.85185019
C          -3.22663827     -0.86239901      3.01162879
H          -2.58926159     -0.25409349      2.32636153
H          -4.27816941     -0.56297122      2.86607960
O          -2.53092986     -2.58014274      1.45652417
H          -1.55801030     -2.33796240      1.38809907
O          -2.77647655     -0.47290686      4.31881958
H          -3.41933613     -0.75722663      4.99774060
          88
 Energy =     -0.82454974 a.u.  #Cluster:   10
C           3.21921586      2.40808221      3.72891925
C           2.88533689      2.04438072      2.42072968
C           3.58683034      1.00315361      1.80734410
C           4.57584880      0.28597084      2.52128423
C           4.90808784      0.66614342      3.82565796
C           4.23317548      1.73703198      4.41987086
H           2.68044647      3.22315789      4.21172791
H           2.08631501      2.56201484      1.89235453
H           5.68005450      0.11429572      4.36099173
H           4.49080002      2.03783807      5.43415156
O           5.31002663     -0.75262993      1.96207420
O           3.45713212      0.67787787      0.47104302
C           4.52151387     -1.94426227      1.64419253
H           5.29966362     -2.69551367      1.47074835
H           3.87823035     -2.22771348      2.48610507
H           3.93000228     -1.75728383      0.73726786
C           2.14048000      0.43564601     -0.09889893
H           2.44748507     -0.17884606     -0.99721549
C           1.58404023      1.77631307     -0.63376821
H           2.33586092      2.58523009     -0.47116189
O           1.60604326      1.62167171     -2.08570064
H           0.76684917      1.19631653     -2.38627344
C           1.26543477     -0.43526973      0.81083927
H           0.56639760      0.14058320      1.44312039
H           1.89888610     -1.07092053      1.46699195
O           0.47502584     -1.25279298     -0.02995940
H           1.18311502     -1.93985406     -0.68071480
C           0.20544114      2.18084365     -0.18949792
C          -0.86808906      1.28387427     -0.32313932
C          -0.01105919      3.45339862      0.34503769
C          -2.13837653      1.63539615      0.12187622
H          -0.69100859      0.27420488     -0.73363084
C          -1.28802683      3.83105359      0.77133688
H           0.80727527      4.16579993      0.43748290
C          -2.35817300      2.93166731      0.67251911
H          -1.46952172      4.81893301      1.19258050
O          -3.54251279      3.45316581      1.13035735
O          -3.23708476      0.80398844      0.04286527
C          -4.68779966      2.56487006      1.21569112
H          -4.45762039      1.71349800      1.86444155
H          -5.44837731      3.22000498      1.65343445
H          -4.96947062      2.22492444      0.21217085
C          -2.96685363     -0.62666075     -0.01629872
H          -3.97845399     -1.04460045     -0.00668752
H          -2.43803424     -0.87895545     -0.93965398
H          -2.39459284     -0.94874458      0.86780978
C           5.40000350     -0.66012959     -1.53128526
H           4.55075534     -1.23073930     -1.07998818
H           5.82362970     -1.25432883     -2.36088576
C           4.90683063      0.73053861     -1.96312259
H           3.95627360      0.63220045     -2.54570938
H           4.64353854      1.31670663     -1.04142192
C           5.29325996      2.84230097     -3.19037714
H           5.99412261      3.48402978     -3.74186985
H           4.40401270      2.68785210     -3.85937177
H           4.91544579      3.41008455     -2.32320474
C           6.31549926      0.76140933     -4.01858230
H           7.01162618      1.33070883     -4.65161645
H           6.79477977     -0.20090822     -3.75702617
H           5.41698937      0.53095717     -4.63938083
C           7.15086088      1.82071513     -1.94808923
H           7.95297515      2.27819652     -2.54216470
H           6.91541177      2.48926696     -1.10238740
H           7.54505707      0.87929968     -1.48369666
N           5.92070833      1.53078122     -2.77908385
O           6.46553828     -0.53338942     -0.59304776
H           6.08934478     -0.44926263      0.34242197
Cl          2.40389739     -2.67852107     -1.37834088
C           2.42947748      1.41362974     -5.08896500
H           2.47836960      0.92597292     -4.08861227
H           1.77224969      0.82418131     -5.75168897
C           1.99330404      2.88080963     -4.98538543
H           2.43427738      3.50389648     -5.78561620
H           0.89200684      2.98304237     -5.01066332
O           3.78636186      1.31588554     -5.55916449
H           3.84360061      1.58018280     -6.49777714
O           2.49172838      3.47765501     -3.78608381
H           2.07236468      3.01957660     -2.98726662
C          -0.30741453     -2.82307235      2.78890932
H          -1.03850313     -3.15517220      3.54827377
H           0.15475061     -1.87143871      3.10814913
C           0.76363046     -3.89637346      2.54081302
H           1.08829974     -4.37514055      3.48172152
H           0.40424932     -4.66231506      1.83134273
O          -1.10300520     -2.60589065      1.62766569
H          -0.52699439     -2.16820850      0.89606347
O           1.96933462     -3.29884653      2.03928954
H           1.90377229     -3.19640213      1.05303310
          88
 Energy =     -0.82454439 a.u.  #Cluster:   11
C           2.95968383      3.81092326     -0.20683465
C           2.01991002      2.85010686     -0.58850559
C           2.25054049      1.50961973     -0.26608819
C           3.43864894      1.13987232      0.40060726
C           4.38222869      2.10060709      0.77071017
C           4.12624891      3.44268918      0.47444058
H           2.78356338      4.85820805     -0.44827097
H           1.12185682      3.11646824     -1.15790453
H           5.29276155      1.79829162      1.29179220
H           4.84676213      4.20483512      0.76971268
O           3.64970286     -0.19240561      0.77440586
O           1.42193215      0.48290115     -0.68941568
C           4.14377360     -1.03693760     -0.31396376
H           5.03742046     -0.59777080     -0.75781315
H           4.35751919     -1.98024679      0.19770888
H           3.33234406     -1.16272437     -1.05640403
C           0.11871860      0.32918879     -0.08459469
H          -0.22093290     -0.57063073     -0.68605303
C          -0.80965269      1.53951717     -0.33977849
H          -0.48555397      2.43620989      0.24329714
O          -0.74236331      1.94191005     -1.68407527
H          -0.46897562      1.07365166     -2.36433425
C           0.25660895     -0.01171695      1.40380788
H          -0.69953856     -0.36508424      1.83754920
H           0.64913302      0.83726082      1.99495807
O           1.13775223     -1.12893759      1.56276494
H           2.02814737     -0.90880626      1.13464036
C          -2.24902347      1.17446915      0.00268059
C          -2.97046667      0.33854579     -0.85305310
C          -2.86824905      1.70822845      1.14406130
C          -4.32619693      0.10433743     -0.60831505
H          -2.49470541     -0.12647675     -1.72788186
C          -4.21285319      1.44470771      1.41103463
H          -2.30141749      2.33965850      1.83025368
C          -4.95651205      0.65598790      0.52382183
H          -4.69825652      1.84600299      2.29998125
O          -6.28814122      0.35590710      0.79781854
O          -4.99044075     -0.56406500     -1.63631580
C          -7.20834094      1.41751680      0.42447702
H          -7.13859094      1.61844299     -0.65257818
H          -8.17990020      0.98361284      0.68711119
H          -7.00410211      2.31575117      1.01155460
C          -5.83300028     -1.67987810     -1.22494953
H          -6.28702641     -1.99287454     -2.16968154
H          -5.19382222     -2.46230996     -0.80114777
H          -6.58419193     -1.34335849     -0.49905406
C          -5.09346635      2.60400752     -2.81685594
H          -4.26113981      2.33174295     -2.14013353
H          -5.51292094      3.58088309     -2.49820875
C          -4.68797349      2.66556894     -4.30239019
H          -5.53690959      2.24630148     -4.89825617
H          -4.57964915      3.72726374     -4.61688640
C          -3.16698823      2.03424011     -6.13932468
H          -2.23464593      1.50252781     -6.42583699
H          -3.99041095      1.58684270     -6.71943166
H          -3.04935830      3.08466491     -6.45136897
C          -3.53431469      0.45120591     -4.30314669
H          -2.73027721     -0.15488667     -4.78163240
H          -3.39043206      0.25559307     -3.21419999
H          -4.51045526      0.04128072     -4.59591661
C          -2.23945277      2.54543775     -3.92698369
H          -1.26306117      2.14795743     -4.28828790
H          -2.22248757      3.63713696     -4.02014550
H          -2.20721527      2.29237862     -2.82650432
N          -3.40291033      1.91524859     -4.64375705
O          -6.18572069      1.70269548     -2.68463382
H          -5.86483324      0.78496136     -2.41794133
Cl         -0.56612458     -0.17478702     -3.46808829
C          -0.14717869     -2.99085654     -1.19352113
H          -0.43736811     -1.92481181     -1.34562350
H          -0.96925520     -3.64306381     -1.53936625
C           1.17416175     -3.31044112     -1.90283269
H           1.82689029     -3.94186836     -1.26885556
H           1.00080495     -3.80427425     -2.87575299
O          -0.06553057     -3.27505506      0.20254546
H           0.46934372     -2.56677465      0.67314762
O           1.97160845     -2.14518742     -2.13744399
H           1.43258180     -1.42133013     -2.55120222
C           4.21510322     -0.39208463      4.16499455
H           4.74658737     -0.09836160      5.08973423
H           4.07678213     -1.48739737      4.14261881
C           2.88813533      0.35506347      3.99236725
H           2.39907558      0.09445952      3.03017816
H           2.18463652      0.17538275      4.82402689
O           5.12793222     -0.00386903      3.13103834
H           4.73270169     -0.21019805      2.23701356
O           3.09650244      1.77452402      4.01489640
H           3.91824731      1.98134621      3.50589717
          88
 Energy =     -0.82395852 a.u.  #Cluster:   12
C           4.08100803      2.15221558     -0.75596762
C           2.87424212      1.52681530     -1.08056287
C           2.76622928      0.14390750     -0.91764267
C           3.86418386     -0.61472105     -0.45877862
C           5.07005559      0.01696549     -0.14019356
C           5.16470031      1.40549911     -0.27920878
H           4.17496065      3.23232437     -0.87316650
H           2.01527500      2.09211100     -1.46434429
H           5.90856946     -0.57614703      0.22131350
H           6.09683997      1.90719545     -0.01912503
O           3.77525194     -1.98825326     -0.22241917
O           1.60404001     -0.53016808     -1.28282403
C           3.60579568     -2.78136197     -1.42997449
H           4.46871651     -2.64419365     -2.08618056
H           3.55894447     -3.80314602     -1.03757393
H           2.66232021     -2.50105459     -1.93094264
C           0.48405353     -0.49307979     -0.34964004
H          -0.14173492     -1.29701339     -0.83010427
C          -0.23040844      0.88739520     -0.37280911
H           0.32847335      1.64214875      0.23675564
O          -0.16327482      1.46646636     -1.66741093
H          -0.71119005      0.97110139     -2.34042720
C           0.88151057     -0.87315806      1.07737034
H           0.01005982     -0.81205100      1.77371911
H           1.69341209     -0.24040139      1.47777712
O           1.27323478     -2.25069534      1.13833123
H           2.16764383     -2.34354587      0.69536036
C          -1.64610680      0.69380811      0.13088222
C          -2.54131165     -0.13002028     -0.57217931
C          -2.01167103      1.26593215      1.35073333
C          -3.77875013     -0.43188896     -0.00734294
H          -2.26140331     -0.57564874     -1.52871188
C          -3.25386431      0.96598506      1.92879926
H          -1.32087906      1.91049825      1.90060422
C          -4.11484325      0.09350239      1.27014613
H          -3.51490006      1.35435750      2.91623928
O          -5.20298378     -0.38697015      1.99790104
O          -4.75705633     -1.21445888     -0.57137774
C          -6.50668864     -0.20096479      1.38281382
H          -6.56257407     -0.76133317      0.44093341
H          -7.17962729     -0.61569228      2.14079082
H          -6.68826223      0.86464863      1.22359719
C          -4.37745552     -2.16404179     -1.60477500
H          -5.15785110     -2.05380267     -2.36100670
H          -3.37766883     -1.98255107     -2.01534909
H          -4.40312210     -3.15549259     -1.11948881
C          -2.98486675     -2.44377146      3.10539965
H          -3.28817318     -1.64083080      3.80742735
H          -2.26811605     -2.03132467      2.36680194
C          -2.48036209     -3.71127744      3.81308450
H          -3.23702557     -4.01083485      4.57599694
H          -2.44713172     -4.54490023      3.07280096
C          -0.78186509     -4.86716136      5.15804763
H           0.20894796     -4.81706149      5.64153601
H          -1.51234903     -5.10366619      5.94977487
H          -0.76372609     -5.70477540      4.44350099
C          -1.15004626     -2.45969395      5.48488860
H          -0.24453065     -2.37036302      6.08029958
H          -1.18084993     -1.33022376      4.89703765
H          -2.02869203     -2.45676990      6.12335884
C          -0.05527757     -3.26420835      3.44276060
H           0.94677546     -3.17670452      3.89429559
H          -0.01601349     -4.02367334      2.65010594
H          -0.22550625     -2.27182111      2.95053565
N          -1.11773875     -3.54806225      4.47926375
O          -4.14692710     -2.92830288      2.40244366
H          -4.71152655     -2.13355525      2.12047409
Cl         -1.16902651     -0.01603438      3.91815768
C           0.85817435     -2.37402416     -3.75103047
H           1.43649537     -2.50749982     -4.67823970
H           1.55242304     -2.08654007     -2.91876436
C          -0.28420969     -1.36066441     -3.88793076
H          -0.71532199     -1.32575210     -4.90530180
H          -1.09016912     -1.56832938     -3.15120039
O           0.34899760     -3.64729262     -3.30847902
H          -0.13338889     -4.09286495     -4.03700740
O           0.19870003     -0.03308850     -3.68696521
H           0.81443080      0.01039573     -2.88410355
C          -2.17611640     -4.69131696      0.00399630
H          -2.13682522     -5.19985570     -0.97926438
H          -1.73562123     -5.35261553      0.77154753
C          -1.47379077     -3.33118506     -0.04037850
H          -2.05604251     -2.55638864      0.50540200
H          -0.44152855     -3.37118138      0.36678815
O          -3.57644632     -4.58489176      0.25607858
H          -3.76274850     -3.96342120      1.02631260
O          -1.41882136     -2.81497188     -1.37666116
H          -0.75756732     -3.32293154     -1.93108970
          88
 Energy =     -0.82212707 a.u.  #Cluster:   13
C           1.91769200      2.22520933      0.84743113
C           1.01536646      1.36269756      0.21595131
C           1.07471645     -0.00585113      0.49013170
C           2.04105917     -0.50375097      1.39741675
C           2.94221752      0.35962430      2.02250916
C           2.86839263      1.73005848      1.74580982
H           1.88151080      3.29295235      0.62910125
H           0.26914140      1.73679740     -0.49278198
H           3.68679751     -0.04101194      2.70903327
H           3.57170855      2.41105230      2.22414472
O           2.05658505     -1.84638160      1.77156127
O           0.29352514     -0.93456163     -0.17081204
C           2.41588484     -2.75819759      0.68893825
H           3.43203605     -2.54154459      0.35226109
H           2.35577433     -3.73501763      1.18074506
H           1.69009167     -2.66630467     -0.13219203
C          -1.12095602     -1.02165419      0.16964262
H          -1.34756110     -2.01306085     -0.31606708
C          -1.92387534      0.09848903     -0.56467825
H          -1.26362753      0.97530909     -0.78739952
O          -2.28418121     -0.38244767     -1.83577363
H          -2.84787698     -1.29075496     -1.76013009
C          -1.31162322     -1.07372477      1.68356975
H          -2.38266512     -1.18828378      1.95266305
H          -0.89413581     -0.17338766      2.19334271
O          -0.71229040     -2.23974955      2.27334140
H           0.26363096     -2.27215889      2.02379107
C          -3.15652096      0.53204213      0.22134661
C          -4.41393351      0.20184500     -0.29396826
C          -3.05770492      1.18630343      1.46031498
C          -5.55085085      0.33834638      0.50416986
H          -4.48139807     -0.19588595     -1.31744446
C          -4.19254228      1.35503083      2.25547332
H          -2.08982264      1.54756662      1.82721228
C          -5.42644640      0.87828906      1.80678643
H          -4.11520880      1.83036035      3.23666016
O          -6.49078800      0.81729160      2.70706376
O          -6.81699911     -0.07739300      0.15525375
C          -7.61096945      1.68847822      2.37839543
H          -7.99906284      1.41591334      1.38798183
H          -8.33415269      1.45477925      3.16666803
H          -7.28908753      2.73144734      2.41243118
C          -7.00519416     -0.53398284     -1.21421194
H          -8.04795031     -0.86679748     -1.19761967
H          -6.85889510      0.30090530     -1.90527811
H          -6.31741886     -1.36318042     -1.44607096
C          -4.48801334     -2.20836582      4.39586923
H          -3.93492204     -3.14238679      4.61980081
H          -3.76182881     -1.39523739      4.20434187
C          -5.48977714     -2.35436648      3.23046477
H          -6.50247190     -2.54807439      3.65950042
H          -5.59380357     -1.37950633      2.68924761
C          -6.04284136     -3.31404593      1.03094046
H          -5.75112828     -4.01327154      0.21667964
H          -7.09881372     -3.46865093      1.28491777
H          -5.94030113     -2.30570314      0.56244527
C          -5.34433181     -4.80708004      2.86584293
H          -5.05286477     -5.61589512      2.17196598
H          -4.74041467     -4.91820445      3.78578735
H          -6.39893756     -4.96658133      3.14650871
C          -3.69793978     -3.32572532      1.79261599
H          -3.45767895     -4.02185281      0.95826994
H          -3.49441443     -2.31400554      1.36527497
H          -2.97380312     -3.50830145      2.60256599
N          -5.13417614     -3.44782393      2.23228073
O          -5.21404950     -1.96210782      5.58741541
H          -5.63383680     -1.03701121      5.57087767
Cl         -3.92218754     -2.68844628     -1.21034569
C          -0.35312991      0.95211311      4.66302589
H          -1.44286514      0.84446444      4.84011056
H           0.03183951      1.77218736      5.29151146
C           0.38021719     -0.37168612      4.91513710
H           1.16916196     -0.55750453      4.16469951
H           0.82158581     -0.40107253      5.92979328
O          -0.28753161      1.34965005      3.28471882
H           0.62891040      1.59186014      3.03403521
O          -0.55641839     -1.45118333      4.92720303
H          -0.66505296     -1.81830416      3.99542296
C          -3.81378299      1.08491260      5.78425737
H          -3.59251167      0.02433556      6.01324261
H          -3.58639944      1.29279389      4.71290583
C          -5.26180675      1.45832185      6.13208381
H          -5.50422123      1.26669073      7.19406554
H          -5.48909470      2.51128656      5.89216858
O          -2.91007010      1.94501905      6.48200176
H          -2.86778857      1.69881268      7.42983110
O          -6.15289354      0.58962152      5.42074634
H          -6.18795480      0.83193646      4.44492658
          88
 Energy =     -0.81839069 a.u.  #Cluster:   14
C           3.33413074      2.58771511     -0.15883740
C           2.22965838      1.75428145     -0.36316191
C           2.23217895      0.47336794      0.19372180
C           3.33957838      0.03347517      0.95565989
C           4.44571599      0.86411064      1.14621076
C           4.43107929      2.14740502      0.58867316
H           3.33980118      3.58770932     -0.59358694
H           1.37264227      2.08290445     -0.95688309
H           5.29366893      0.50709616      1.72957119
H           5.28861880      2.80445384      0.73521037
O           3.31767000     -1.18559162      1.62945535
O           1.23492793     -0.45440304     -0.06130470
C           3.28889947     -2.35424231      0.75611634
H           4.20905423     -2.39097567      0.16799796
H           3.23787903     -3.17851593      1.47603806
H           2.39951948     -2.31992177      0.11172319
C          -0.06172834     -0.28047190      0.57188250
H          -0.47774644     -1.30966483      0.39825979
C          -0.90175255      0.76186767     -0.20348723
H          -0.25174092      1.58130495     -0.59840918
O          -1.38085741      0.01126604     -1.33584763
H          -2.02199582      0.54763846     -1.84952049
C           0.08227217      0.04084903      2.06539313
H          -0.91069599      0.13414624      2.56851366
H           0.66562269      0.96351393      2.23778043
O           0.69725948     -1.04368410      2.75931794
H           1.62802313     -1.19384179      2.41156191
C          -2.05584859      1.30835548      0.60594098
C          -3.28512249      0.62740417      0.59364039
C          -1.89495596      2.47344124      1.35355843
C          -4.36606536      1.12780816      1.31743159
H          -3.37752917     -0.29327084      0.01356848
C          -2.96057430      2.96406785      2.12045132
H          -0.95282479      3.01644028      1.35251326
C          -4.18789911      2.30001128      2.11680630
H          -2.84557268      3.86228383      2.72710090
O          -5.11132245      2.86916363      2.96945692
O          -5.62364414      0.59641123      1.32915795
C          -6.49512730      2.43034859      2.87115820
H          -6.86378574      2.58807897      1.85366668
H          -6.57101855      1.36486989      3.14577959
H          -6.99250340      3.08299320      3.59393622
C          -5.83965422     -0.66120255      0.62969836
H          -6.87174732     -0.89375999      0.93438949
H          -5.74937687     -0.50370456     -0.44522989
H          -5.15619700     -1.43727471      1.00552734
C          -3.04250216     -2.06767389      3.01981618
H          -3.17017750     -0.99580213      2.76974089
H          -2.11880132     -2.46749558      2.56213568
C          -3.09787564     -2.30559044      4.54520998
H          -4.12802772     -2.02297632      4.90850176
H          -3.00156921     -3.39256633      4.75170429
C          -2.44842614     -1.61225510      6.81710193
H          -1.71068239     -1.08043850      7.44934380
H          -3.44828892     -1.12617369      6.98268670
H          -2.51663414     -2.65206369      7.16218997
C          -2.07042758     -0.06731379      4.95430420
H          -1.40711747      0.53101722      5.60021294
H          -1.76219839      0.08148680      3.90310693
H          -3.10487430      0.37659088      5.07877950
C          -0.69929582     -2.11559807      5.15361011
H           0.05743437     -1.58032787      5.76604628
H          -0.66771361     -3.17739590      5.43423238
H          -0.36691539     -2.02969816      4.09530789
N          -2.07285323     -1.52279798      5.35212023
O          -4.08539849     -2.81660914      2.42720947
H          -5.00623339     -2.43428095      2.73333562
Cl         -6.16064326     -1.15759536      3.61808785
C           1.36271180      1.59917885      8.29501634
H           1.90613694      2.52401365      8.04755066
H           0.61601991      1.80579161      9.08861467
C           0.73439566      0.91888244      7.07298749
H          -0.19538536      1.41452277      6.72680569
H           1.44203808      0.82426551      6.22842587
O           2.23168146      0.64012138      8.91975692
H           3.08542361      0.58196215      8.43971671
O           0.31988189     -0.40985995      7.43332913
H           0.91916231     -0.74548375      8.15827291
C          -5.56404584      0.92873919      6.29810807
H          -6.17102811      0.70841823      7.19723110
H          -6.23663399      1.23779562      5.47607178
C          -4.51330909      2.00422996      6.60715361
H          -4.98308698      2.92633555      6.99355049
H          -3.75797943      1.63755823      7.32603794
O          -4.89862182     -0.26997452      5.93702769
H          -5.39109519     -0.68068873      5.01333114
O          -3.72133957      2.35137452      5.46341657
H          -4.30220958      2.51593526      4.67109077
          88
 Energy =     -0.81799531 a.u.  #Cluster:   15
C           2.37473654      2.98790085      3.67005299
C           1.47245859      3.12366946      2.61153945
C           1.78238199      2.53376947      1.38135557
C           2.99259555      1.83134206      1.20840185
C           3.89340320      1.70553321      2.27062197
C           3.57233461      2.28264198      3.50238623
H           2.13034030      3.41687592      4.64212148
H           0.52485715      3.64219812      2.74491886
H           4.80750715      1.12840988      2.13869621
H           4.25234031      2.15856752      4.34573300
O           3.31463070      1.34765523     -0.05914372
O           0.94935369      2.67330902      0.27898072
C           3.16276869     -0.10096704     -0.18576154
H           2.09203696     -0.35521957     -0.08986821
H           3.55367053     -0.29791028     -1.18373761
H           3.74403167     -0.61253373      0.59065843
C          -0.33892004      1.94947326      0.27760787
H          -0.32530030      1.50625564     -0.74853772
C          -1.40449932      3.07266450      0.35850769
H          -0.94444454      3.99119117      0.79637531
O          -1.67310419      3.47013621     -1.01351128
H          -2.56058492      3.16696798     -1.29735005
C          -0.43330382      0.83065595      1.31379370
H          -1.48173781      0.62471821      1.62483705
H           0.12471587      1.03265761      2.24999210
O           0.04805584     -0.35305945      0.68914951
H           0.89589127     -0.76324712      1.32178340
C          -2.67763699      2.67889444      1.05794021
C          -3.40602686      1.55972848      0.60661974
C          -3.09856617      3.38966200      2.18082779
C          -4.49840016      1.10500584      1.33784301
H          -3.07624176      1.01991430     -0.28039950
C          -4.21269376      2.95621791      2.90987693
H          -2.55320346      4.26873494      2.52042973
C          -4.88621530      1.79402575      2.52450181
H          -4.54315266      3.49079720      3.80135874
O          -5.86890690      1.42933063      3.41810421
O          -5.27470476      0.01922311      0.99656327
C          -6.65710001      0.24464330      3.13287326
H          -6.00757438     -0.63651614      3.09081921
H          -7.33458263      0.21413177      3.99397724
H          -7.19986743      0.37596567      2.19112677
C          -4.71847939     -0.91999519      0.03602099
H          -5.44014546     -1.74207583      0.08666793
H          -4.69682885     -0.46943460     -0.95606367
H          -3.71338067     -1.26192795      0.35744409
C           0.06664008      4.68299448     -2.60231858
H          -0.36526508      3.69852561     -2.88742311
H          -0.66152756      5.18063753     -1.92655886
C           1.43175080      4.55972605     -1.91918793
H           1.92547251      5.55210682     -1.86306925
H           1.25965719      4.21471278     -0.85136888
C           3.70310375      3.59891421     -1.86182545
H           4.40963973      2.85108249     -2.26409125
H           4.17619681      4.58981951     -1.90699520
H           3.57039009      3.32398090     -0.78763068
C           2.60646954      3.93771545     -4.03874018
H           3.24901635      3.20400630     -4.55071438
H           1.64391807      3.99927350     -4.59515819
H           3.07170322      4.93273344     -4.13297980
C           1.80882607      2.16759117     -2.50931743
H           2.43381436      1.43211412     -3.03626341
H           1.76194646      1.83359837     -1.42576165
H           0.78372536      2.11551607     -2.91207257
N           2.37667535      3.56399856     -2.59165790
O           0.18599453      5.38782679     -3.84207388
H           0.10730789      6.35306250     -3.70957507
Cl          1.92718166     -1.20104295      2.53715901
C          -2.28023142     -1.99985834      2.46687106
H          -3.21004888     -2.58545281      2.57258401
H          -2.46536179     -0.94963982      2.78589559
C          -1.12023089     -2.61598231      3.25929294
H          -1.47306058     -3.34926483      4.00576464
H          -0.38586836     -3.09479703      2.58526620
O          -2.02962085     -2.02735827      1.06041571
H          -1.19311044     -1.47389401      0.83949839
O          -0.47058125     -1.59745850      4.03535836
H           0.50359616     -1.42972144      3.64891982
C          -3.06750620      0.39516458      5.74820018
H          -3.23091145     -0.53644237      5.17792892
H          -2.77640925      0.14510786      6.78453214
C          -2.03762936      1.30145997      5.05505532
H          -2.47536255      2.28654286      4.80898331
H          -1.13457556      1.44449896      5.67342375
O          -4.31232142      1.08195734      5.92721729
H          -4.78558333      1.17886525      5.06537852
O          -1.65139718      0.76467074      3.79489511
H          -1.17591959     -0.15064962      3.92486668
          88
 Energy =     -0.81589431 a.u.  #Cluster:   16
C           3.19278118      2.97874813     -1.80192565
C           2.19994703      2.08444078     -1.39025343
C           2.49334855      1.16140276     -0.38390134
C           3.77770165      1.16472759      0.21128662
C           4.78072211      2.02660116     -0.22993428
C           4.47313481      2.94700401     -1.23756119
H           2.95384253      3.71312193     -2.57393376
H           1.19716138      2.11791231     -1.83696623
H           5.78014687      1.97479179      0.20557814
H           5.23979504      3.63565620     -1.58815439
O           4.02602974      0.37137280      1.33867703
O           1.68069434      0.12927132      0.03740398
C           4.07827238     -1.06328237      1.06980913
H           4.89149718     -1.27749671      0.37190648
H           4.26610845     -1.48340175      2.06305999
H           3.10808788     -1.39120068      0.66844326
C           0.31887877      0.35909533      0.48901992
H           0.07028957     -0.69777676      0.76352848
C          -0.62374738      0.86983170     -0.62098469
H          -0.23687102      1.82252547     -1.07933915
O          -0.53934603     -0.13216924     -1.64614246
H          -1.37410681     -0.14835311     -2.20793376
C           0.35068121      1.28665043      1.70867502
H          -0.60690118      1.27549270      2.26417994
H           0.60601609      2.33482847      1.42440205
O           1.31358856      0.84537335      2.67197863
H           2.16169073      0.59220037      2.21696654
C          -2.04424504      1.04020467     -0.13602110
C          -2.88435608     -0.07203114     -0.03094610
C          -2.54883535      2.32465386      0.12402421
C          -4.24301437      0.10192334      0.24709972
H          -2.49403183     -1.08228651     -0.19527458
C          -3.88856726      2.50305244      0.45233708
H          -1.88897153      3.19987360      0.05268021
C          -4.75651519      1.39414321      0.50158144
H          -4.29259416      3.49426720      0.65651036
O          -6.05109238      1.74530914      0.78995390
O          -5.13564313     -0.96104247      0.14834316
C          -7.06814018      0.71231607      0.74436179
H          -6.91452052      0.00648805      1.56502131
H          -7.98673842      1.29620230      0.87087115
H          -7.04405518      0.19483007     -0.22149789
C          -4.78024868     -2.13920322      0.91910821
H          -5.63370306     -2.79943705      0.73505340
H          -3.85034869     -2.57698946      0.53030506
H          -4.69036276     -1.88336827      1.97733556
C           1.64276233      7.44801603      1.18107732
H           2.51985038      7.40561982      0.50653560
H           0.77719425      7.83449762      0.60792449
C           1.30248347      6.12815478      1.81811394
H           0.46690835      6.19955655      2.52552543
H           0.81119944      5.38433991      0.86366241
C           1.92361921      4.04706235      2.95261869
H           2.73154465      3.43761120      3.40050053
H           1.15097423      4.20354784      3.71950336
H           1.45825640      3.43365735      2.13894225
C           3.11830889      6.11759353      3.52587531
H           4.02163714      5.59714219      3.88222021
H           3.40075141      7.13865259      3.18906735
H           2.43557234      6.24760188      4.37916671
C           3.47769311      5.05065479      1.33440612
H           4.25928496      4.36496960      1.71932505
H           3.00028496      4.55053653      0.46048770
H           3.96109266      5.96649472      0.96410392
N           2.44905645      5.35518395      2.40076007
O           2.04607579      8.44533939      2.14601050
H           1.29235847      8.70220797      2.70819329
Cl          0.45505033      4.31888691     -0.28119295
C           6.83612992      1.53703912      3.27830282
H           7.91721262      1.59100269      3.50962534
H           6.31287568      0.98513869      4.08031158
C           6.23189434      2.92674785      3.05591568
H           6.48268865      3.63015154      3.87020426
H           6.54441834      3.34653352      2.08038888
O           6.79521226      0.78221810      2.06614032
H           5.84807562      0.57622704      1.82603864
O           4.79397617      2.88651488      3.08160595
H           4.47020352      2.09147567      2.58378217
C          -2.44043755     -2.30725694     -3.21749668
H          -1.77715015     -2.17179122     -4.09555169
H          -3.32333156     -2.90265149     -3.50576377
C          -1.68734476     -2.91671356     -2.03178091
H          -1.02841521     -3.74543384     -2.33976005
H          -1.07769085     -2.14636851     -1.49232094
O          -2.85622997     -0.96387597     -2.92637386
H          -3.56709600     -0.97207460     -2.23462365
O          -2.59604502     -3.37559046     -1.02070400
H          -3.12170112     -4.13126676     -1.34791324
          88
 Energy =     -0.81588956 a.u.  #Cluster:   17
C           3.42872302      2.51932416     -0.61991594
C           2.14344046      1.97492067     -0.55641009
C           1.96822147      0.69944064     -0.01316100
C           3.08226053     -0.02954385      0.45854838
C           4.36780280      0.51758622      0.38555786
C           4.53172328      1.79880366     -0.14818043
H           3.57020888      3.51433277     -1.04135818
H           1.27324035      2.53050208     -0.92708194
H           5.21546881     -0.05745657      0.75627744
H           5.52885994      2.23590437     -0.19875631
O           2.96448743     -1.24669208      1.12010360
O           0.72326801      0.07231577     -0.01870426
C           2.32463916     -2.30734581      0.35336804
H           2.92397285     -2.52961750     -0.53202723
H           2.33561547     -3.13985181      1.06594314
H           1.30072161     -2.01387746      0.08459984
C          -0.25310609      0.47020634      0.99063694
H          -0.90357216     -0.45154599      0.98091129
C          -1.00589225      1.71492516      0.44609104
H          -0.59314441      2.66885653      0.85374220
O          -0.78971831      1.84635508     -0.96631171
H          -0.45520724      0.98915210     -1.34233853
C           0.34554849      0.70686659      2.37938922
H          -0.44680453      1.00133223      3.11198392
H           1.14173787      1.47116071      2.37480000
O           0.85366370     -0.50932642      2.92853803
H           1.64555722     -0.81703784      2.40385429
C          -2.49659929      1.61774937      0.69614777
C          -3.28902634      0.78847890     -0.10591391
C          -3.07874170      2.38464497      1.71620331
C          -4.66639941      0.70911717      0.12638117
H          -2.83592905      0.20359289     -0.90619974
C          -4.45717655      2.34161806      1.92641673
H          -2.45861524      3.00397919      2.37039520
C          -5.24661878      1.48589847      1.15124022
H          -4.92435907      2.94927551      2.70424424
O          -6.58047475      1.41066115      1.56439009
O          -5.53158505     -0.04149261     -0.65325784
C          -7.56897252      1.18706783      0.51923367
H          -7.52392561      0.13763307      0.20016189
H          -8.50877731      1.42804097      1.02367842
H          -7.37968755      1.85188705     -0.32879664
C          -5.06622122     -1.37079922     -1.01035626
H          -5.87302736     -1.72542383     -1.66021995
H          -4.11542462     -1.32302185     -1.54618320
H          -4.99013441     -1.98261689     -0.09852352
C          -5.46258136      0.06832876      4.35744772
H          -4.60937987      0.57938076      3.85839700
H          -5.08701325     -0.73946068      5.01182880
C          -6.40979298      1.04377810      5.08582754
H          -6.97252071      1.61990219      4.30962526
H          -7.17185842      0.45193535      5.64099350
C          -6.81639539      2.80397011      6.74674669
H          -6.38001533      3.52641916      7.45835611
H          -7.41524859      3.38961658      6.02772718
H          -7.49660871      2.14709322      7.30904999
C          -4.85307759      2.95749696      5.28986821
H          -4.52012753      3.82200459      5.85566749
H          -3.70241917      2.40306378      5.02603363
H          -5.22010099      3.25591953      4.30776274
C          -4.91856451      1.27175883      7.06784474
H          -4.45160576      1.96404056      7.78946009
H          -5.52592352      0.53888779      7.61466304
H          -4.05913743      0.73906759      6.59167461
N          -5.72341788      2.02408957      6.02972552
O          -6.27683259     -0.60799255      3.39324221
H          -6.51632972      0.02828350      2.63809663
Cl         -2.32632301      1.63325644      4.86287021
C          -3.97536022     -4.63421922      1.82286539
H          -4.31660150     -5.46050454      1.17426051
H          -3.33548202     -3.93736112      1.24082970
C          -5.14533564     -3.87768604      2.46947850
H          -6.12868370     -4.31187104      2.22381312
H          -5.02967386     -3.81831538      3.56565763
O          -3.20350573     -5.28896739      2.82392854
H          -2.69044706     -4.60827172      3.36508944
O          -5.11016678     -2.55403630      1.89500981
H          -5.55578881     -1.88864917      2.50412591
C          -1.15228993     -2.48311936      3.46497585
H          -0.80780287     -2.99659031      2.54975965
H          -0.29157051     -2.03494262      3.99770263
C          -2.23228549     -1.44792283      3.15611282
H          -3.11692881     -1.58642790      3.79795262
H          -1.84639908     -0.41131113      3.27466478
O          -1.79038136     -3.47139017      4.32277104
H          -1.11767433     -3.94541107      4.84619500
O          -2.58214892     -1.55466751      1.76945652
H          -3.48641666     -1.98065396      1.68175659
          88
 Energy =     -0.81563789 a.u.  #Cluster:   18
C           3.93848240      2.82654404      0.34972908
C           2.86014245      2.31841381     -0.38173775
C           2.66339358      0.93682180     -0.42977779
C           3.56211869      0.06915618      0.23378981
C           4.63924079      0.58092256      0.96023459
C           4.81316906      1.96775526      1.02359584
H           4.09715593      3.90395091      0.38739338
H           2.19278892      2.98439862     -0.93954926
H           5.31720716     -0.10097034      1.46919106
H           5.64306218      2.37811156      1.59672504
O           3.36229469     -1.31338937      0.25969544
O           1.65703354      0.37402053     -1.20211736
C           3.55586104     -1.95115214     -1.03811439
H           4.61231725     -1.90319662     -1.30463279
H           3.22482021     -2.98074292     -0.85316064
H           2.91902892     -1.47570384     -1.79675475
C           0.32624941      0.28796784     -0.62317867
H          -0.07669368     -0.55021631     -1.26194881
C          -0.46828428      1.58649046     -0.91073109
H           0.06741696      2.47731375     -0.51089481
O          -0.57357823      1.70850104     -2.32561068
H           0.25824353      2.38651369     -2.70488363
C           0.34023385     -0.09548066      0.85902613
H          -0.66936964     -0.03776267      1.32976938
H           1.04267890      0.50790796      1.45955376
O           0.69173858     -1.48777815      0.98869140
H           1.66010125     -1.60682706      0.70460427
C          -1.88362248      1.47870902     -0.38055509
C          -2.73144062      0.48077944     -0.88419901
C          -2.35774778      2.39140069      0.56647415
C          -4.05531460      0.40283241     -0.45269355
H          -2.35619129     -0.21916574     -1.63528692
C          -3.67825199      2.31714478      1.01405310
H          -1.70386668      3.16909242      0.96019068
C          -4.53832673      1.33026947      0.50990522
H          -4.06181302      3.01531485      1.75702739
O          -5.80656737      1.40735564      1.03680415
O          -4.97600623     -0.50779940     -0.94232006
C          -6.75488177      0.37222021      0.67521006
H          -6.38455136     -0.60555200      0.99779795
H          -7.64588428      0.67715320      1.23378289
H          -6.92761496      0.38537533     -0.40764455
C          -4.44729427     -1.74586372     -1.48506617
H          -5.31370762     -2.15149746     -2.01650291
H          -3.61382274     -1.56471962     -2.16904800
H          -4.14789075     -2.39968284     -0.64852089
C          -2.13524087      3.85287516     -4.06184461
H          -1.41131304      4.45230093     -3.47182712
H          -2.97028599      4.48209668     -4.41452185
C          -1.42833255      3.09532666     -5.21868786
H          -0.57958134      2.50869419     -4.76579709
H          -2.13633345      2.33846577     -5.62237368
C          -0.24260014      3.08176764     -7.37544067
H           0.18774670      3.66344581     -8.20680203
H           0.58665702      2.50226159     -6.91613805
H          -0.95554972      2.35443299     -7.79863057
C           0.12073147      4.97047574     -5.84611522
H           0.32100319      5.76592541     -6.57458791
H          -0.18135689      5.42923258     -4.88032929
H           1.09043750      4.47141425     -5.59975334
C          -2.04730885      4.71961435     -6.99254649
H          -1.72329089      5.27515476     -7.88730984
H          -2.85692587      4.03172763     -7.29520121
H          -2.49202032      5.45103937     -6.29011850
N          -0.90049962      3.97498974     -6.34130487
O          -2.73535252      2.86583302     -3.26317445
H          -1.98679657      2.33903337     -2.73555692
Cl          1.17556530      3.62280450     -3.29576975
C           0.37729576     -2.78880854     -2.56414925
H           0.06157411     -2.78102172     -3.61872940
H           0.56535022     -1.73454304     -2.23542981
C          -0.63215589     -3.48243692     -1.63968408
H          -1.55706020     -3.78271954     -2.16531629
H          -0.18535201     -4.36292557     -1.14165448
O           1.66657345     -3.40719687     -2.45049177
H           1.66628992     -4.28692747     -2.87435495
O          -1.09488714     -2.56025162     -0.65082896
H          -0.32132206     -2.28185514     -0.02192778
C          -2.11888595     -2.14251522      2.44029528
H          -1.80554959     -2.28561021      3.49134407
H          -1.24678155     -2.32883708      1.77371862
C          -3.31862353     -3.01060271      2.05752981
H          -3.44644687     -3.87321836      2.73734865
H          -4.25697509     -2.42144333      2.04403897
O          -2.44728583     -0.74882900      2.39859981
H          -2.81732748     -0.50682257      1.51876463
O          -3.19585284     -3.59202571      0.75272712
H          -2.38397049     -3.23599118      0.27422649
          88
 Energy =     -0.81497461 a.u.  #Cluster:   19
C           2.25067941      1.47837927      1.74759975
C           1.71689448      1.19502101      0.48708603
C           2.17674232      0.07786062     -0.21529384
C           3.17358939     -0.75204311      0.34630215
C           3.71344619     -0.45564835      1.60274199
C           3.24047548      0.65857246      2.30099112
H           1.89021070      2.34412334      2.30301854
H           0.94367097      1.83062860      0.04971888
H           4.48631977     -1.10305374      2.01804095
H           3.65083702      0.89051166      3.28431936
O           3.56839978     -1.94944499     -0.23578298
O           1.75200147     -0.15738238     -1.51701702
C           4.20634188     -1.82780662     -1.54450177
H           5.15469845     -1.30060828     -1.43168314
H           4.36091246     -2.89316632     -1.81853466
H           3.53883976     -1.32267230     -2.24879138
C           0.55202652     -0.95232775     -1.73486489
H           0.84839801     -1.51613466     -2.66267916
C          -0.56600565      0.05748237     -2.10508419
H          -0.10636537      1.06356603     -2.27693005
O          -1.02636973     -0.44645659     -3.37426304
H          -1.69681582      0.15636241     -3.75911080
C           0.19990858     -1.92093227     -0.60315807
H          -0.81428093     -2.35010108     -0.74280276
H           0.26168115     -1.45002692      0.39591661
O           1.04919830     -3.06741434     -0.63835174
H           2.01808233     -2.79176654     -0.52085501
C          -1.71559173      0.14636499     -1.12431083
C          -2.84019737     -0.65561061     -1.29689932
C          -1.63866550      1.04267983     -0.04297843
C          -3.91659307     -0.56724269     -0.38805797
H          -2.90628270     -1.36333968     -2.12858412
C          -2.68974940      1.13327156      0.86232229
H          -0.74792257      1.66324745      0.09285691
C          -3.82978123      0.33354624      0.69219675
H          -2.63757254      1.81052408      1.71836596
O          -4.81523936      0.37558991      1.68440156
O          -4.93394318     -1.42140070     -0.71422610
C          -5.78791733      1.44624324      1.51944829
H          -6.28033189      1.36455467      0.54656223
H          -6.48417544      1.26016752      2.34621059
H          -5.28981120      2.41441992      1.62930039
C          -6.02998566     -1.60355602      0.21583834
H          -6.50637083     -2.51243165     -0.17583046
H          -5.65691015     -1.76361092      1.23915391
H          -6.69862577     -0.74063938      0.16461380
C           3.37048374     -5.35022345     -0.97845705
H           2.66537505     -4.56449079     -0.63445169
H           4.16003549     -5.49236376     -0.21109290
C           2.67109652     -6.70650933     -1.21268146
H           3.42182537     -7.43206113     -1.64200591
H           2.34456149     -7.13027822     -0.24069720
C           0.92452917     -8.06099156     -2.28852183
H           0.08872188     -8.11059452     -3.00068617
H           1.72683745     -8.74809731     -2.68310530
H           0.58786668     -8.45687956     -1.32120010
C           1.90515146     -6.18345103     -3.53681865
H           1.05068925     -6.01651116     -4.20116291
H           2.50758148     -5.24164466     -3.46070291
H           2.58829512     -6.93050834     -4.01579643
C           0.40568012     -5.74541913     -1.62744072
H          -0.51967516     -5.80371677     -2.21848361
H           0.16105006     -5.96910499     -0.57747494
H           0.73749591     -4.67414091     -1.64870869
N           1.47983037     -6.65647874     -2.16683679
O           3.93961912     -4.83643032     -2.15724850
H           4.72014312     -5.51980575     -2.53065300
Cl          5.60913183     -6.90411696     -3.05424672
C          -3.53843275     -0.82342294      4.68966122
H          -4.58519547     -0.99141458      5.00498208
H          -2.88012470     -0.79588346      5.57842571
C          -3.09234841     -1.87877387      3.67155418
H          -2.32576294     -1.47838179      2.98263677
H          -2.71621692     -2.79731894      4.16049197
O          -3.41504002      0.49968546      4.15622432
H          -3.94554717      0.57577161      3.32077851
O          -4.21074101     -2.36020966      2.91279689
H          -4.60419656     -1.61808296      2.38231072
C           4.82608753    -10.65047922     -3.23384699
H           5.53696351     -9.99921714     -2.69153869
H           4.25501764    -11.25501968     -2.50871414
C           3.91358386     -9.83068090     -4.16133695
H           4.43932741     -9.54483505     -5.09106234
H           2.98985054    -10.37300239     -4.42349513
O           5.53715324    -11.63419602     -3.99741547
H           6.22789873    -11.20369122     -4.54087912
O           3.49197874     -8.66342481     -3.47643485
H           4.36992854     -7.97809365     -3.33546561
          88
 Energy =     -0.81482819 a.u.  #Cluster:   20
C           2.07036403      3.05481082      1.91160209
C           0.90179893      2.39993622      1.51263413
C           0.95317661      1.03783081      1.21152629
C           2.17680937      0.33588355      1.30426538
C           3.34377470      0.99464202      1.70017031
C           3.27887739      2.35723700      2.01039969
H           2.03542276      4.11911597      2.14055781
H          -0.05928546      2.93283392      1.41378288
H           4.27752410      0.44002727      1.76432474
H           4.18241895      2.87843096      2.32238931
O           2.25695219     -1.04175603      1.11170352
O          -0.14377860      0.36227406      0.68545126
C           1.87827354     -1.48122310     -0.22724043
H           2.62580786     -1.12664446     -0.94077969
H           1.89175354     -2.57046136     -0.12693492
H           0.87605193     -1.10702286     -0.48544121
C          -1.14801161     -0.15291569      1.59266298
H          -1.50810294     -1.02068810      0.98506417
C          -2.25683749      0.93590654      1.76083376
H          -2.34402241      1.24849942      2.83077062
O          -1.89377276      2.06263560      1.04868094
H          -1.32317831      1.76625732     -0.18093151
C          -0.59620202     -0.62448333      2.94394052
H          -1.41133903     -0.87694035      3.64746210
H           0.06832898      0.12822972      3.40805587
O           0.10367511     -1.85977929      2.80301996
H           0.91617277     -1.71830773      2.22843542
C          -3.60243788      0.39108515      1.29041751
C          -4.09982274      0.81193831      0.05280073
C          -4.35681686     -0.48031415      2.08456837
C          -5.36873258      0.42041824     -0.36744005
H          -3.47493499      1.47147451     -0.57070503
C          -5.62636803     -0.89077240      1.66730533
H          -3.95473990     -0.85834748      3.02302102
C          -6.15375945     -0.42620209      0.45436468
H          -6.22154614     -1.57824348      2.26639578
O          -7.47332059     -0.76716095      0.23847516
O          -5.95314748      0.87855833     -1.54031680
C          -7.85978917     -1.02877957     -1.13668670
H          -7.21808164     -1.80159539     -1.56787157
H          -8.89139561     -1.37835442     -1.01907707
H          -7.81360360     -0.10224402     -1.72223252
C          -5.03556929      1.34660209     -2.57429895
H          -5.71241714      1.50327266     -3.42103134
H          -4.55994279      2.28262826     -2.25658506
H          -4.28364703      0.57903483     -2.79088915
C          -7.42770452      3.07240274      0.73055017
H          -7.66403877      2.05643520      1.10029159
H          -8.20294785      3.78882296      1.06181215
C          -6.00560953      3.52118320      1.10685718
H          -5.24784526      2.84956784      0.61214273
H          -5.77188465      4.50738167      0.63100596
C          -4.24790559      3.78189917      2.82742405
H          -3.99653811      3.82877087      3.90090090
H          -3.65234552      2.94865301      2.37710033
H          -3.86832916      4.69319045      2.30920206
C          -6.14923354      2.30684714      3.28625411
H          -5.78214003      2.28217697      4.33517739
H          -7.24243049      2.18412486      3.30762691
H          -5.71849794      1.42275311      2.77243572
C          -6.47982851      4.74775366      3.21183360
H          -6.33029026      4.79326316      4.31506384
H          -6.14101557      5.70919494      2.79009549
H          -7.56560055      4.66921650      3.03999644
N          -5.72930979      3.58665181      2.60091284
O          -7.52978473      3.10268417     -0.68649545
H          -7.02422320      2.32930185     -1.08175956
Cl         -1.09704850      1.85405788     -1.59575251
C          -4.53275929      3.71571200      6.71375305
H          -4.20538058      4.67077443      6.25288653
H          -3.93127226      3.51939206      7.61554226
C          -6.04197200      3.72260551      6.99245111
H          -6.53741761      2.83643119      6.54452073
H          -6.27977118      3.76895483      8.06826756
O          -4.26122809      2.73107061      5.70356252
H          -3.89217134      1.91390938      6.10001098
O          -6.66326128      4.82083253      6.30929700
H          -6.53292033      5.65574008      6.80593394
C          -2.65765135      4.76167897     -0.55635730
H          -3.28216787      5.65129716     -0.73981666
H          -2.45367409      4.23262779     -1.50730201
C          -1.35912440      5.10021177      0.18725077
H          -0.75437003      4.18188906      0.37644210
H          -0.74953137      5.86371784     -0.31963632
O          -3.45719793      3.92791045      0.28363043
H          -2.87415094      3.05792204      0.57210822
O          -1.67275884      5.69156642      1.46510877
H          -2.35880186      5.12534798      1.89261293
          88
 Energy =     -0.81419587 a.u.  #Cluster:   21
C           4.72658014      0.24361085      0.34039149
C           3.42434410     -0.08018556     -0.05705598
C           2.83993541     -1.25483582      0.42020461
C           3.55705843     -2.10828154      1.29301152
C           4.86153114     -1.78138130      1.67789070
C           5.43633127     -0.59884144      1.20083543
H           5.18349707      1.16695549     -0.01486863
H           2.86342841      0.56979436     -0.73007719
H           5.39754887     -2.43703390      2.36408937
H           6.44572724     -0.33075604      1.51350232
O           2.99539064     -3.22094927      1.89557946
O           1.60435315     -1.68616959     -0.03247311
C           2.37922865     -4.19207904      0.99214728
H           3.08435194     -4.47335931      0.19986018
H           2.16034995     -5.02391099      1.66932511
H           1.47183741     -3.76524970      0.53823449
C           0.41681741     -1.11227087      0.57125095
H          -0.30567683     -1.97220448      0.41158817
C           0.01203659      0.09829879     -0.31047291
H           0.76820102      0.91427379     -0.26186714
O          -0.04665071     -0.32239889     -1.67670516
H           0.57676321     -1.09457694     -1.82560874
C           0.53663719     -0.79647113      2.06110900
H          -0.38662325     -0.28433164      2.43797848
H           1.42287421     -0.18876613      2.30914056
O           0.54970475     -2.01404134      2.81591611
H           1.43487144     -2.47676254      2.70672769
C          -1.36535016      0.56983159      0.10123816
C          -2.49387200     -0.15171942     -0.31410142
C          -1.48735786      1.65922895      0.96922434
C          -3.74396900      0.16757438      0.21666808
H          -2.37007648     -0.95067068     -1.04903085
C          -2.73650442      1.98399141      1.50942401
H          -0.61991308      2.25994024      1.23515783
C          -3.84930125      1.20793285      1.18261545
H          -2.85115811      2.81368910      2.20623984
O          -4.95720090      1.41841403      1.98466060
O          -4.93002362     -0.44599336     -0.10145459
C          -6.25935863      1.36170264      1.34417002
H          -6.50841397      0.31545628      1.12407714
H          -6.91206003      1.78185698      2.11739613
H          -6.26803113      1.96610681      0.43424305
C          -4.85440064     -1.68156286     -0.86535709
H          -5.90806586     -1.97848545     -0.90791869
H          -4.45168199     -1.48510378     -1.86118363
H          -4.25987086     -2.42628033     -0.30718838
C           4.49636237     -5.48076507     -3.62222636
H           4.59406171     -6.00011411     -2.64982492
H           3.65358784     -5.93320240     -4.18106090
C           4.30794612     -3.99809001     -3.50517316
H           4.19127617     -3.49679599     -4.47104596
H           3.07133362     -3.81548172     -2.98047142
C           6.67379669     -3.33094355     -3.12820278
H           7.39541910     -2.90380795     -2.41904902
H           6.95687414     -4.39115504     -3.32937808
H           6.77052242     -2.80021951     -4.08756750
C           5.22145367     -3.85103843     -1.21191219
H           5.76962936     -3.22536850     -0.49065189
H           4.16544201     -3.93660616     -0.84577266
H           5.65182934     -4.86669006     -1.19468130
C           4.82972879     -1.81372538     -2.53339075
H           5.47510104     -1.23028773     -1.85951681
H           4.83420236     -1.34106185     -3.52812124
H           3.78446092     -1.72920653     -2.15062401
N           5.25084665     -3.26708876     -2.60758920
O           5.73660368     -5.83387826     -4.28070104
H           5.69367650     -5.61975025     -5.23028774
Cl          1.80873423     -3.45439542     -2.16146083
C          -1.62351622     -4.10145808      2.76017020
H          -0.52273628     -4.03906648      2.86919805
H          -2.10398358     -3.53981743      3.59323779
C          -2.09916330     -3.60045754      1.39472362
H          -1.42752152     -2.80662193      0.99531120
H          -2.16456515     -4.42595010      0.65825345
O          -1.89088727     -5.49904847      2.92363759
H          -2.85333283     -5.66524299      2.83324659
O          -3.43370230     -3.09644942      1.45099712
H          -3.51586136     -2.37395221      2.14456251
C          -2.08072267     -1.42559028      5.01807601
H          -2.54410594     -1.19687847      5.99423809
H          -2.29108266     -2.48570572      4.74625140
C          -2.55970539     -0.48044634      3.90710469
H          -2.78141792      0.53338124      4.27726391
H          -1.82129432     -0.41027568      3.07759121
O          -0.68701792     -1.23515487      5.24838961
H          -0.15212132     -1.59805633      4.48883317
O          -3.76278119     -1.08822269      3.39159791
H          -4.35203422     -0.38734947      3.00605073
          88
 Energy =     -0.80927101 a.u.  #Cluster:   22
C           2.85083664      3.03339445      0.25334038
C           1.94031353      2.17297832     -0.36836610
C           2.07097586      0.79556952     -0.17827395
C           3.12267857      0.28814582      0.61955104
C           4.03473739      1.14848591      1.23173800
C           3.88326454      2.52827263      1.05050381
H           2.75645078      4.10972796      0.10782398
H           1.14146044      2.55519868     -1.01200784
H           4.83704096      0.73971038      1.84413559
H           4.58402380      3.21058546      1.53036591
O           3.22710302     -1.08072954      0.88681039
O           1.28533522     -0.13281606     -0.83905108
C           3.59847219     -1.86910465     -0.28365264
H           4.58790295     -1.56049991     -0.63114008
H           3.61837415     -2.88698946      0.11679481
H           2.84249261     -1.74295045     -1.07127760
C          -0.09300679     -0.30337944     -0.42194850
H          -0.32130801     -1.21783452     -1.04050159
C          -1.00163922      0.87855052     -0.86886802
H          -0.51967795      1.85651928     -0.61128155
O          -1.11452494      0.94193243     -2.25943380
H          -1.33600310      0.00123878     -2.70296491
C          -0.16757437     -0.60318782      1.08088277
H          -1.20422702     -0.84753393      1.40241401
H           0.22571965      0.22030721      1.70194752
O           0.56137597     -1.80849739      1.37708302
H           1.55364017     -1.62726286      1.25376349
C          -2.36717149      0.76733191     -0.19719404
C          -3.21255262     -0.31883378     -0.45386183
C          -2.77607641      1.76289749      0.69856253
C          -4.41481723     -0.44714386      0.24575734
H          -2.95713690     -1.06700208     -1.21786378
C          -4.00604384      1.67474477      1.35904415
H          -2.13838944      2.62759185      0.88528257
C          -4.82824677      0.56435477      1.14875419
H          -4.30681369      2.46540788      2.04079289
O          -6.03775620      0.33782702      1.77930611
O          -5.05273997     -1.66424984      0.04615301
C          -6.66258306      1.46626533      2.43890015
H          -6.79575162      2.29401224      1.73612723
H          -7.62933508      1.04396439      2.73925755
H          -6.07607368      1.76303776      3.31285515
C          -6.50203457     -1.67469097      0.12071712
H          -6.91964454     -0.88841482     -0.51453536
H          -6.74390273     -2.67257558     -0.26119256
H          -6.81705710     -1.54614792      1.16306370
C          -2.32190929     -3.22667556      0.85339576
H          -1.54233084     -3.73941782      1.46587519
H          -2.15121367     -2.13049225      0.91840309
C          -2.37502133     -3.72170028     -0.59656794
H          -3.30864653     -4.31265022     -0.74393556
H          -2.47102825     -2.84506630     -1.30992205
C          -1.34874218     -5.02325119     -2.42682925
H          -0.49631613     -5.62447365     -2.77358682
H          -2.27103978     -5.60772170     -2.55372384
H          -1.42506624     -4.14276931     -3.12416237
C          -1.04119588     -5.76757138     -0.10059151
H          -0.17433542     -6.38933510     -0.36702594
H          -0.91714525     -5.47123588      0.97328297
H          -1.94490621     -6.39641985     -0.13599242
C           0.09522042     -3.73479607     -0.90327635
H           0.97623601     -4.28304890     -1.26124230
H           0.01116917     -2.80035238     -1.52516362
H           0.29148357     -3.39065871      0.13726411
N          -1.16579421     -4.55775853     -0.99893553
O          -3.54904062     -3.56563205      1.50154272
H          -4.26215449     -2.91906080      1.21647387
Cl         -1.53285301     -1.76416518     -3.21455469
C          -1.07422450     -3.21847658      4.29278961
H          -1.90176569     -2.83336735      3.67126065
H          -1.29900981     -3.01612090      5.36314308
C          -0.82872899     -4.71523402      4.06521117
H           0.23661075     -4.92781428      3.85943583
H          -1.17188881     -5.31682430      4.93028888
O           0.11789275     -2.47303170      4.06468056
H           0.27624477     -2.32587353      3.08969398
O          -1.50618704     -5.21586047      2.89601623
H          -2.44100120     -4.89149763      2.87078939
C          -3.51841565     -5.29010997      6.77095053
H          -3.90153576     -5.22670371      5.73516093
H          -4.18934031     -4.73191786      7.44907065
C          -3.30431803     -6.73712033      7.22930718
H          -4.23144705     -7.33238140      7.20401031
H          -2.51954266     -7.24423800      6.63058737
O          -2.26309042     -4.60057856      6.71245011
H          -1.74856569     -4.79690231      7.53594342
O          -2.74139826     -6.73984878      8.54812367
H          -3.41491276     -6.49018840      9.21271630
          88
 Energy =     -0.80912148 a.u.  #Cluster:   23
C           2.88652666      3.01295119      0.61440656
C           1.75080458      2.44684055      0.02307368
C           1.60029205      1.06023613      0.04417364
C           2.59020811      0.23935417      0.63007321
C           3.72580996      0.81046710      1.21099898
C           3.85907202      2.19906330      1.20839025
H           3.01248449      4.09457696      0.60647240
H           0.99458590      3.06695107     -0.47125796
H           4.48022266      0.16245450      1.65629004
H           4.73785766      2.65378994      1.66703368
O           2.43701882     -1.14283172      0.73494044
O           0.55076245      0.43041989     -0.61525210
C           2.39439388     -1.83128219     -0.54823359
H           3.34722648     -1.69419828     -1.06561425
H           2.24321033     -2.87288223     -0.24615317
H           1.55665137     -1.45457423     -1.14981505
C          -0.75292566      0.42170396      0.02534494
H          -1.22530935     -0.40160365     -0.56501772
C          -1.44121760      1.79137627     -0.21664487
H          -1.08561756      2.56473642      0.50882504
O          -0.98654244      2.30794750     -1.46147988
H          -1.44458237      1.85422166     -2.23298775
C          -0.69726927      0.05606181      1.51558618
H          -1.71096423      0.07418284      1.96678431
H          -0.02542116      0.72456747      2.08401739
O          -0.28394981     -1.29854252      1.67831545
H           0.67843780     -1.38610747      1.41394950
C          -2.94726870      1.64192669     -0.19255007
C          -3.57832481      0.76125570     -1.07776774
C          -3.71258860      2.40414515      0.70045491
C          -4.96957820      0.64674292     -1.07304687
H          -2.99790788      0.16200061     -1.78773665
C          -5.10223055      2.29822157      0.71170788
H          -3.22011739      3.10729975      1.39757917
C          -5.73939912      1.41227025     -0.17077988
H          -5.69109993      2.89787282      1.41151112
O          -7.11655937      1.30808464     -0.00995909
O          -5.60917945     -0.14484095     -2.02453812
C          -7.89952287      1.21269933     -1.22985690
H          -7.61990635      0.31171660     -1.79215766
H          -8.92331084      1.14897643     -0.85150739
H          -7.74529904      2.11147267     -1.83353860
C          -5.32265796     -1.56422924     -1.90127400
H          -5.83981234     -1.98203088     -2.77133408
H          -4.24561917     -1.74934430     -1.95763417
H          -5.74342410     -1.93934209     -0.96366839
C          -7.63437010      0.64180692      5.88805256
H          -6.89283355     -0.11765905      5.57286600
H          -7.27653381      1.11271318      6.82628602
C          -7.90260058      1.70649871      4.84584160
H          -8.71782350      2.38026072      5.15404351
H          -6.90083247      2.43495959      4.79760272
C          -8.31279982      2.42128145      2.53287171
H          -8.35931748      2.13083181      1.46494821
H          -9.21517671      2.99384776      2.78910448
H          -7.44669865      3.11928706      2.62806253
C          -9.37491578      0.35741238      3.35472712
H          -9.49361339     -0.09887203      2.35984636
H          -9.33201235     -0.45829311      4.11338230
H         -10.28254798      0.93984704      3.57845654
C          -6.94465144      0.41339760      2.94869202
H          -7.03671650      0.16190340      1.87426678
H          -6.00261258      1.00191742      3.05978841
H          -6.82361890     -0.51824628      3.52215840
N          -8.13209688      1.21739717      3.43509630
O          -8.80518468     -0.15057795      6.16378368
H          -9.44168906      0.34959290      6.71119191
Cl         -5.49218703      3.28511815      4.28015834
C          -2.36482192      4.99355535      5.13616066
H          -1.43512620      5.40365420      5.57492589
H          -3.04740762      5.82782604      4.88300841
C          -2.10370598      4.10087862      3.91863272
H          -1.06646562      4.18208499      3.54528879
H          -2.34891826      3.04475526      4.14557702
O          -2.91770270      4.23428257      6.21586902
H          -3.81015187      3.88295339      5.96372181
O          -2.88323828      4.53423178      2.79378892
H          -3.85143700      4.49070578      3.01564557
C          -1.04284647      0.93316564     -4.57367318
H          -0.74399677      1.98600430     -4.73105680
H          -1.41708758      0.49367070     -5.51224753
C           0.09835236      0.11715327     -3.95165338
H          -0.29204568     -0.63451119     -3.24214842
H           0.70723319     -0.37478333     -4.73402034
O          -2.10803391      0.90047796     -3.58857347
H          -2.92670693      1.30013506     -3.94908310
O           1.02411695      0.98320572     -3.29920181
H           0.67670235      1.22366774     -2.38448760
          88
 Energy =     -0.80843370 a.u.  #Cluster:   24
C           2.14123544      3.18056120     -1.15635653
C           1.05136854      2.35181670     -0.88257912
C           1.00150620      1.69398847      0.34792008
C           2.04344292      1.84552047      1.28833389
C           3.13173972      2.67574045      1.00888879
C           3.16599131      3.34966480     -0.21668572
H           2.19185200      3.69835248     -2.11544932
H           0.23563511      2.19060826     -1.60896602
H           3.92382646      2.79055295      1.74515687
H           4.00838512      4.00291210     -0.44294559
O           1.98337390      1.21960946      2.54115145
O          -0.00978804      0.79416600      0.66056921
C           2.19533146     -0.22079518      2.45684224
H           3.18893299     -0.42190340      2.04757337
H           2.12270509     -0.53529833      3.50109657
H           1.40743584     -0.66893119      1.83769247
C          -1.29375832      1.34805711      1.00463709
H          -1.81896299      0.39322528      1.24325996
C          -1.99971869      2.12069970     -0.15273146
H          -1.55139498      3.13965732     -0.26819798
O          -1.83574615      1.43823443     -1.34502959
H          -2.22805905      2.21227449     -2.28749929
C          -1.18403089      2.27298407      2.23243985
H          -2.17712750      2.65133172      2.54962601
H          -0.51325631      3.13157553      2.04501202
O          -0.70519748      1.54288837      3.36757664
H           0.27269506      1.32492544      3.20163357
C          -3.47751189      2.20781343      0.22556411
C          -4.21375167      1.01376513      0.27153730
C          -4.09032183      3.42519105      0.51544082
C          -5.56274096      1.04086544      0.59444221
H          -3.72616348      0.07521347     -0.04486496
C          -5.44745607      3.46344670      0.87634997
H          -3.53521591      4.36123817      0.42629731
C          -6.17724814      2.27962818      0.92926653
H          -5.92874588      4.42401215      1.06290542
O          -7.49391726      2.15717837      1.35194394
O          -6.37653555     -0.06827479      0.69082539
C          -8.31040672      3.35710692      1.25245648
H          -8.14473440      3.84458480      0.27244096
H          -9.32618827      2.95141297      1.32407107
H          -8.07531621      4.02858152      2.07958115
C          -5.92164392     -1.27471225      0.01241054
H          -6.85015169     -1.68985587     -0.39415058
H          -5.19458919     -1.07261578     -0.79698718
H          -5.48016941     -1.92914178      0.76598087
C          -6.53384080     -0.18043732      3.74760985
H          -6.94352981     -0.66327167      2.83116926
H          -6.89840983     -0.71563462      4.64504658
C          -4.99049624     -0.18324979      3.66609319
H          -4.62745762     -1.20395943      3.92376647
H          -4.67952580     -0.00703550      2.60260310
C          -2.84694859      0.43326613      4.73048849
H          -2.24999317      1.21860823      5.23705816
H          -2.74443515     -0.49722283      5.30560782
H          -2.31725287      0.29836136      3.75404029
C          -4.95343383      0.93167518      5.90550020
H          -4.40088710      1.60019876      6.58610096
H          -5.98862680      1.33571552      5.81022129
H          -5.02751266     -0.05771762      6.38455682
C          -4.32957068      2.20667020      3.88851733
H          -3.96146264      2.99974352      4.55892078
H          -3.69706915      2.23332356      2.96802151
H          -5.36822494      2.46952151      3.58747836
N          -4.29012974      0.84683187      4.54913812
O          -7.04904453      1.13714932      3.88117098
H          -7.33037474      1.49800752      2.97037771
Cl         -2.77496579      3.24583070     -3.20755951
C          -4.89676166      0.59952607     -2.96239697
H          -5.85924222      0.14740281     -2.67024579
H          -4.59839989      1.36674746     -2.22185623
C          -3.78440573     -0.44676638     -3.13768076
H          -4.16387394     -1.41001905     -3.51723898
H          -2.98950838     -0.07736755     -3.80989860
O          -5.19066230      1.23605866     -4.21138437
H          -4.44020946      1.83591053     -4.46446696
O          -3.23460486     -0.74729047     -1.85480106
H          -2.57386258      0.02128444     -1.57719709
C          -6.52250373      4.14391327     -2.21890856
H          -5.62051087      3.86791757     -1.64416991
H          -6.22512618      4.81530316     -3.04316824
C          -7.32229741      2.93178523     -2.70173277
H          -6.82006791      2.38424198     -3.52753700
H          -7.56306747      2.23086875     -1.88094143
O          -7.33519813      4.90528128     -1.29856752
H          -8.25480216      4.94406437     -1.67098835
O          -8.62098581      3.40724097     -3.11533923
H          -8.57935440      3.73595657     -4.03406948
          88
 Energy =     -0.80796536 a.u.  #Cluster:   25
C           3.94649060      1.99113324      0.16793315
C           2.76682683      1.44629053     -0.34654972
C           2.62474333      0.05807512     -0.37576003
C           3.65962711     -0.78437365      0.08410066
C           4.83862812     -0.23167049      0.59333461
C           4.96818575      1.15997541      0.64209237
H           4.06701288      3.07426336      0.20432854
H           1.95563438      2.08293947     -0.72007875
H           5.62859151     -0.88999210      0.95346574
H           5.87891118      1.59864799      1.05111582
O           3.51643480     -2.16841934      0.13730013
O           1.50487123     -0.55438757     -0.93691878
C           3.40644531     -2.80209161     -1.17086834
H           4.29479971     -2.57771548     -1.76761565
H           3.36028183     -3.86483639     -0.90712210
H           2.49029639     -2.46492726     -1.67085095
C           0.27195292     -0.55123365     -0.15839926
H          -0.29324601     -1.31314022     -0.75251886
C          -0.41880318      0.84345011     -0.18119039
H          -0.00610799      1.51543695      0.61414727
O          -0.09475824      1.56387681     -1.35842471
H          -0.36924061      1.08277608     -2.19686503
C           0.49960868     -1.03477333      1.27785378
H          -0.43675648     -0.99483644      1.87831710
H           1.27473518     -0.45075461      1.80658344
O           0.85770756     -2.41970150      1.27549277
H           1.78689719     -2.50971044      0.90698262
C          -1.90753800      0.63309503     -0.01118672
C          -2.68885645      0.14036252     -1.06616174
C          -2.48419858      0.88246406      1.24160847
C          -4.03705354     -0.13346524     -0.83598067
H          -2.27554888     -0.01344763     -2.06341009
C          -3.82310120      0.56596101      1.48653231
H          -1.88372800      1.30261611      2.05844103
C          -4.59538658      0.02784693      0.45494828
H          -4.24010217      0.71462884      2.48345168
O          -5.87280276     -0.47329367      0.63362202
O          -4.82725523     -0.46613037     -1.93276997
C          -6.81500184      0.42260350      1.28455988
H          -7.04214362      1.24940690      0.59475307
H          -7.68895176     -0.22293122      1.42171218
H          -6.42454214      0.77969365      2.23935346
C          -5.37277551     -1.81427021     -1.89986141
H          -5.90032082     -1.87427366     -2.85828390
H          -4.55907251     -2.54298134     -1.84666796
H          -6.06261277     -1.91298716     -1.05379034
C          -2.53491048     -2.79642840      1.32517606
H          -2.70457865     -1.81633539      0.83995234
H          -1.51993818     -3.15910837      1.05270658
C          -2.77308109     -2.70051382      2.80979224
H          -2.31163876     -1.57427068      3.24913238
H          -3.84012006     -2.60433947      3.05334299
C          -2.45444434     -3.55198582      5.09437084
H          -1.97131888     -4.29494409      5.74412781
H          -2.11399774     -2.54018592      5.42500451
H          -3.54158534     -3.58270866      5.26580789
C          -0.61050314     -3.69473887      3.47815013
H          -0.08769917     -4.45402330      4.07104270
H          -0.30271993     -3.79673206      2.41327248
H          -0.23566330     -2.68957713      3.78373701
C          -2.59448102     -5.14740988      3.22384013
H          -2.01854399     -5.94982146      3.70382126
H          -3.66053527     -5.28462635      3.46587130
H          -2.52040395     -5.27175269      2.11963414
N          -2.11260288     -3.77086359      3.63377912
O          -3.40481765     -3.77080819      0.70941809
H          -4.32615564     -3.44504773      0.71964540
Cl         -1.63064187     -0.36853314      4.08980606
C          -7.75012183      1.25094723     -2.90748654
H          -8.55806346      2.00183837     -2.83297482
H          -8.19460510      0.24122071     -2.92325507
C          -6.84032634      1.50184214     -4.12041468
H          -6.17498916      2.36754476     -3.95224400
H          -6.22714845      0.61870934     -4.38132634
O          -7.00669861      1.43280299     -1.70181926
H          -6.26987902      0.75781518     -1.65481492
O          -7.64133391      1.70430258     -5.29059230
H          -8.09948760      2.56689649     -5.24400663
C           1.57952674      1.43039392     -3.95103197
H           1.44165659      2.31657752     -3.30463202
H           1.13794938      1.61404625     -4.94945092
C           3.04440255      0.99350204     -4.03246322
H           3.68463062      1.74418067     -4.53165557
H           3.46167496      0.75922406     -3.03409167
O           0.78359755      0.34701831     -3.44057250
H           1.15534809      0.03650187     -2.55538400
O           3.18253410     -0.17726801     -4.84877840
H           2.39445939     -0.75783417     -4.71350472
          88
 Energy =     -0.80613812 a.u.  #Cluster:   26
C           4.60395556      1.47016689      0.57775716
C           3.33184838      1.30411490      0.01262594
C           3.07624708      0.16154542     -0.74684847
C           4.08510385     -0.81477629     -0.91276319
C           5.36084570     -0.63018441     -0.38400944
C           5.61060901      0.52327934      0.37187732
H           4.78972757      2.34308085      1.20772160
H           2.53924915      2.04129095      0.19107234
H           6.13501604     -1.37194696     -0.55753673
H           6.59786963      0.67842432      0.80381221
O           3.78116232     -2.03457700     -1.53399327
O           1.91075521     -0.04134090     -1.47276128
C           3.72432323     -1.94422778     -2.98901835
H           4.69822626     -1.63339891     -3.37405942
H           3.48269792     -2.97030359     -3.28337768
H           2.93303872     -1.23971728     -3.27704523
C           0.65270045     -0.24420078     -0.78621832
H           0.02448021     -0.47330906     -1.68304822
C           0.13122354      1.01237710     -0.03796263
H           0.93520454      1.45308710      0.62353227
O          -0.10413538      2.07420736     -0.95688634
H          -0.88993221      1.90602953     -1.51296663
C           0.75129096     -1.44478462      0.16306747
H          -0.24847504     -1.77638652      0.52197668
H           1.40283595     -1.21425886      1.04085979
O           1.27436725     -2.60573384     -0.50101998
H           2.07725150     -2.34239345     -1.06255081
C          -1.11029998      0.64707261      0.74786913
C          -2.26599192      0.20909504      0.08152689
C          -1.06906279      0.67657978      2.14598302
C          -3.35707994     -0.24339053      0.82346865
H          -2.30486145      0.20789080     -1.00407914
C          -2.17942989      0.27947961      2.89223848
H          -0.15530358      1.00928216      2.66604293
C          -3.33603445     -0.16912505      2.23936484
H          -2.16423015      0.32026036      3.98440612
O          -4.35439395     -0.53124205      3.09868799
O          -4.46291731     -0.87511267      0.27244275
C          -5.70266709     -0.56187060      2.55588412
H          -5.79967930     -1.40445606      1.86201954
H          -6.30691422     -0.71067394      3.45724665
H          -5.92537220      0.39250909      2.05806685
C          -4.77870665     -0.57841426     -1.11019257
H          -5.77772683     -1.01999369     -1.21384404
H          -4.81134273      0.50212427     -1.27795165
H          -4.05686625     -1.07518517     -1.76823103
C           2.39248746     -4.56329327      1.28016710
H           1.42078935     -4.34201691      1.76890986
H           2.19907944     -4.73700189      0.20241431
C           3.43126992     -3.44865547      1.45247825
H           4.44349509     -3.81839023      1.17933184
H           3.20148922     -2.63145151      0.71102214
C           4.44356020     -1.68043765      2.83027074
H           4.35589561     -1.05059148      3.73957440
H           5.48350323     -1.99851465      2.69962812
H           4.18853601     -0.95527492      2.01281593
C           3.97141323     -3.87547467      3.84422710
H           3.90386261     -3.50043034      4.87857704
H           3.37057155     -4.81008851      3.77321427
H           5.01822662     -4.15781268      3.65176675
C           2.10927196     -2.36540304      3.27664273
H           2.16411041     -1.66154173      4.13362257
H           1.63493584     -1.74158494      2.47019006
H           1.43502672     -3.19483824      3.53018749
N           3.47821123     -2.84251510      2.85380704
O           2.83168953     -5.76345017      1.92427679
H           3.43833779     -6.27001065      1.34856749
Cl          2.41398117      0.61159683      2.63565467
C          -2.00991844     -2.94097774     -1.21839977
H          -2.70337824     -2.50594667     -1.96103084
H          -1.64641876     -2.15105945     -0.52865450
C          -2.65930400     -4.07916578     -0.41728748
H          -3.48268321     -4.56609199     -0.96486743
H          -1.91500435     -4.84491574     -0.12601658
O          -0.92970135     -3.45877895     -1.99523033
H          -0.06484132     -3.30915247     -1.50859900
O          -3.15047759     -3.59343297      0.83653653
H          -3.74514670     -2.81567275      0.70248679
C          -4.44744927      3.05333085      2.83184757
H          -4.23789785      4.11457432      2.61850943
H          -3.52310159      2.46240207      2.65635353
C          -4.99976471      2.83349966      4.24602308
H          -4.77524208      3.68549088      4.91724804
H          -6.09029210      2.65356387      4.22668545
O          -5.35507881      2.54086019      1.84128468
H          -6.15853578      3.09377411      1.79750709
O          -4.35924105      1.74222113      4.90459760
H          -4.43507174      0.91070987      4.36053571
          88
 Energy =     -0.80595125 a.u.  #Cluster:   27
C           1.45767882      3.25094117      0.22395158
C           0.73581762      2.44129964     -0.65608221
C           1.05011763      1.08282628     -0.75121956
C           2.14369636      0.55637614     -0.02256675
C           2.86193828      1.37043834      0.85853719
C           2.49267007      2.71182757      0.99593326
H           1.20456605      4.30807841      0.30519436
H          -0.07375113      2.85709836     -1.27451343
H           3.68167983      0.94152785      1.43200995
H           3.01348204      3.34204385      1.71567073
O           2.48755029     -0.79175513     -0.07140751
O           0.38649187      0.23571366     -1.62529044
C           2.88441883     -1.25917966     -1.39525721
H           3.78625433     -0.73179622     -1.71409437
H           3.07980326     -2.32183340     -1.21374185
H           2.05861541     -1.11818619     -2.10748436
C          -0.94387276     -0.22756215     -1.24849247
H          -1.08348765     -0.99038785     -2.05594102
C          -1.97043575      0.92510814     -1.39717014
H          -1.50521571      1.89267959     -1.06906609
O          -2.30431606      1.04041245     -2.75901494
H          -2.05504710      2.18060145     -3.08314735
C          -0.94583312     -0.86459053      0.15137234
H          -1.94493036     -1.26345601      0.41638078
H          -0.61979802     -0.15357658      0.93200664
O          -0.11818691     -2.02559069      0.18507095
H           0.83983999     -1.74818725      0.10322438
C          -3.25340107      0.68833520     -0.61667263
C          -4.13506727     -0.33124057     -1.00672616
C          -3.58257698      1.51499682      0.45933170
C          -5.32914434     -0.52284193     -0.31148937
H          -3.89326877     -0.95667276     -1.86862095
C          -4.78062006      1.33634921      1.16011416
H          -2.90737799      2.32081306      0.75734292
C          -5.66501113      0.32153102      0.77709214
H          -5.01518771      1.99488543      1.99173310
O          -6.87439573      0.05082493      1.38628182
O          -6.15615508     -1.50786111     -0.84301922
C          -7.32540014      0.96886114      2.41297714
H          -7.41220110      1.98207669      2.00961661
H          -8.31363548      0.55872127      2.65758856
H          -6.65565827      0.92749245      3.27661476
C          -6.84703368     -2.35505606      0.11675953
H          -7.36795362     -3.06452504     -0.53620360
H          -6.12485371     -2.84977400      0.77135208
H          -7.56362033     -1.75823968      0.69638683
C          -3.75990358     -0.57162410     -4.71977290
H          -2.96434311     -0.41418367     -5.47343817
H          -3.35297138     -0.33166274     -3.70577748
C          -5.05039640      0.21025097     -5.05517593
H          -5.33624012     -0.02107257     -6.10722746
H          -5.88078749     -0.17737830     -4.42044954
C          -6.15525268      2.36680008     -5.49722683
H          -6.13825956      3.46364473     -5.35960636
H          -6.20806410      2.17248554     -6.58099842
H          -7.08927290      1.99584484     -5.03882489
C          -3.69275592      2.24976041     -5.54165820
H          -3.59451047      3.34928977     -5.41569212
H          -2.77000715      1.84244333     -5.05811894
H          -3.66342177      2.01053792     -6.61245651
C          -4.90919738      2.06599788     -3.40341462
H          -4.78271316      3.15019980     -3.22691794
H          -5.78958436      1.70711233     -2.86032721
H          -3.98410389      1.60900864     -2.90475255
N          -4.93605862      1.72006543     -4.86622233
O          -4.07857264     -1.94913274     -4.84305206
H          -4.53866866     -2.30650476     -4.00118091
Cl         -2.07646459      3.72381001     -3.25907647
C           5.63875219      3.71190154      2.34260511
H           4.94582239      2.87878033      2.55924287
H           6.43268870      3.74217375      3.11624178
C           6.22882207      3.62417884      0.93208879
H           6.58428817      2.60400089      0.68980140
H           5.50918623      3.95327293      0.15941493
O           4.96049056      4.96086962      2.53684808
H           4.21422472      5.05090563      1.90757041
O           7.41619732      4.41727417      0.82455282
H           7.23380597      5.32840540      1.14812132
C          -2.88594257     -4.49778189     -3.29295173
H          -2.19501717     -5.27540984     -2.91319851
H          -3.69992424     -4.96712539     -3.87744363
C          -3.45356954     -3.64813813     -2.14986250
H          -3.60601859     -4.23208464     -1.22693561
H          -2.81502685     -2.76857883     -1.94096120
O          -2.06233192     -3.72121065     -4.16033803
H          -2.61630308     -3.01928776     -4.61465463
O          -4.75138896     -3.19196438     -2.61456917
H          -5.20541241     -2.64093266     -1.91448612
          88
 Energy =     -0.80556101 a.u.  #Cluster:   28
C           2.64731507      3.68157986     -0.35918139
C           1.53472061      2.89219270     -0.65971119
C           1.62157590      1.50629488     -0.51172092
C           2.81800417      0.90983689     -0.06127166
C           3.93227476      1.70501777      0.22871969
C           3.83628573      3.09201674      0.08503202
H           2.58628166      4.76463531     -0.47654824
H           0.59308244      3.34170100     -1.00759923
H           4.85196344      1.23001214      0.57208278
H           4.70059093      3.71735795      0.31396312
O           2.91000334     -0.44906732      0.22082566
O           0.56502251      0.67254746     -0.88214049
C           2.88597314     -1.31287081     -0.94911032
H           3.69525847     -1.04519285     -1.63261631
H           3.04515206     -2.30515664     -0.50573968
H           1.90295082     -1.24826074     -1.43982189
C          -0.60159691      0.60915262      0.00175461
H          -1.08787663     -0.30574158     -0.42589986
C          -1.48511784      1.87113089     -0.16492529
H          -1.11780607      2.72143282      0.47287939
O          -1.35425400      2.40476196     -1.47951793
H          -1.48422344      1.69643415     -2.18766489
C          -0.19308848      0.37483331      1.45810463
H          -1.08692131      0.30566209      2.12103996
H           0.46774266      1.18215319      1.83079952
O           0.43552062     -0.89346081      1.59780480
H           1.34979775     -0.86387982      1.19462424
C          -2.92840774      1.52586191      0.13256424
C          -3.76489659      1.07001458     -0.89362587
C          -3.41727012      1.65626276      1.43917896
C          -5.09838447      0.75845264     -0.60795489
H          -3.40848330      0.97019836     -1.91767605
C          -4.75096447      1.36238520      1.72698480
H          -2.75515345      1.99287350      2.24996291
C          -5.60001952      0.92627235      0.70282366
H          -5.14564490      1.46726617      2.73811199
O          -6.89917778      0.59128060      1.06138906
O          -5.87968640      0.38391892     -1.69122404
C          -7.91616655      1.42444375      0.43633105
H          -7.80077474      1.42646212     -0.65325616
H          -8.84226748      0.92738049      0.74595561
H          -7.85072493      2.43720453      0.84375451
C          -6.52385980     -0.91350352     -1.55251712
H          -7.18918123     -0.93414700     -2.42249284
H          -5.76245958     -1.69599076     -1.61014337
H          -7.08591307     -0.97661348     -0.61352202
C          -1.75027480      5.00310562     -6.74703122
H          -1.30516889      5.23955926     -7.73643967
H          -2.47704250      4.17820948     -6.86317140
C          -0.57854049      4.59228762     -5.80162524
H          -0.10037871      3.66846032     -6.17981011
H           0.18888804      5.40949227     -5.84297671
C           0.19235660      3.82648410     -3.59648464
H          -0.04489264      3.69901699     -2.51353438
H           0.46864957      2.82482029     -3.97577513
H           1.07167238      4.48647692     -3.67416927
C          -2.14918068      3.42753220     -4.24961537
H          -2.46477185      3.29136218     -3.19558331
H          -3.02462288      3.81536120     -4.80933409
H          -1.87896363      2.43608990     -4.64991336
C          -1.39190770      5.70165499     -3.70628731
H          -1.77694214      5.56249562     -2.68947820
H          -0.55546599      6.42786367     -3.68753495
H          -2.18197850      6.20560915     -4.33910665
N          -0.99162429      4.39584811     -4.34793971
O          -2.45287426      6.09069918     -6.25602871
H          -1.71437688      7.03629083     -6.18859008
Cl         -0.46438062      7.92951278     -5.82959593
C          -1.21212150     -1.38295648     -2.84153229
H          -1.87615573     -0.89821316     -2.10060633
H          -1.73223617     -2.25856769     -3.28043268
C          -0.74371635     -0.40744735     -3.92431103
H           0.19020661     -0.76111511     -4.40176247
H          -1.51615719     -0.23376890     -4.69638851
O          -0.09060754     -1.97373451     -2.17962696
H           0.33302175     -1.31561500     -1.56059971
O          -0.50595869      0.90972191     -3.39734566
H           0.14197291      0.87634428     -2.62798943
C          -0.47591597      2.32612630      4.25576085
H           0.50641719      1.85154412      4.08133544
H          -0.54702599      2.66897000      5.30316286
C          -0.76566297      3.44742652      3.25270061
H          -1.78345401      3.30780184      2.80906747
H          -0.68707240      4.44991261      3.70314775
O          -1.52590385      1.36542006      4.02143143
H          -1.35371943      0.54041664      4.52270891
O           0.09385106      3.36113980      2.10972829
H           1.00729421      3.63676376      2.32702625
          88
 Energy =     -0.80445851 a.u.  #Cluster:   29
C           2.87534805      2.80966391      1.53020430
C           1.78393600      2.12439141      0.98252004
C           1.78117009      0.72872366      1.01213559
C           2.85788933      0.03431149      1.60937610
C           3.96570466      0.71714517      2.11157730
C           3.96017936      2.11670404      2.07675418
H           2.86266871      3.90118636      1.54069257
H           0.93708012      2.67393315      0.55539400
H           4.80213708      0.16232461      2.52719334
H           4.80729067      2.66777012      2.48009609
O           2.77063101     -1.34700810      1.81556432
O           0.84329359     -0.07509900      0.38056018
C           3.00072635     -2.13412541      0.61054947
H           4.01761966     -1.96220074      0.25087028
H           2.86653805     -3.15974003      0.96975644
H           2.25410745     -1.86688856     -0.14820774
C          -0.55064964     -0.03457981      0.76545746
H          -0.92671304     -0.81203195      0.05393793
C          -1.22391775      1.33920744      0.53268163
H          -0.74699835      2.13699821      1.17469087
O          -0.93193454      1.81772504     -0.77881148
H          -1.34961220      1.26009266     -1.46644999
C          -0.70809476     -0.49287581      2.22087263
H          -1.75655087     -0.75539125      2.46148824
H          -0.33142827      0.27386818      2.93795529
O           0.01433381     -1.71268353      2.44628944
H           0.96235715     -1.61779246      2.10544409
C          -2.71969806      1.26831207      0.75446941
C          -3.49896741      0.31384976      0.08616242
C          -3.32192634      2.19401095      1.61513065
C          -4.88828776      0.31353499      0.25976077
H          -3.05568543     -0.42912979     -0.57261429
C          -4.70828701      2.20673377      1.78191909
H          -2.71335087      2.93512539      2.16688656
C          -5.49661255      1.28269307      1.08986120
H          -5.18508582      2.94030764      2.43294460
O          -6.87053783      1.31683904      1.31760787
O          -5.57883294     -0.60560872     -0.51018821
C          -7.63068570      1.77473602      0.16341925
H          -7.41428912      1.15088284     -0.71128494
H          -8.66484636      1.64880311      0.50035778
H          -7.39663079      2.82531702     -0.02902052
C          -6.57888350     -1.40262477      0.18519952
H          -7.20085246     -1.77252374     -0.64778110
H          -6.06328491     -2.21524464      0.70124564
H          -7.16885293     -0.79942413      0.88263642
C          -0.34045146     -1.41128049      5.91852062
H          -1.02344466     -1.82308645      6.68972747
H          -0.85636185     -0.57528035      5.40384631
C           0.99651234     -1.00366412      6.57883090
H           0.85757732     -0.89920983      7.67539454
H           1.70789987     -1.85300387      6.42198603
C           2.97764671      0.46832429      6.67392753
H           3.45473783      1.39915631      6.31040136
H           2.90671759      0.53842250      7.77083779
H           3.65737338     -0.36486830      6.42393981
C           0.75043164      1.46672366      6.38182681
H           1.14477771      2.40791704      5.93846480
H          -0.27424214      1.37621860      5.93375651
H           0.63561656      1.59629655      7.46388582
C           1.80343357      0.18796180      4.54306386
H           2.32647848      1.08276963      4.13585721
H           2.35577139     -0.71618755      4.23959399
H           0.82428284      0.18931347      4.00218220
N           1.61430086      0.28096210      6.03310695
O          -0.09418292     -2.50230611      5.05150850
H           0.00223707     -2.20098942      4.08722173
Cl          0.31819547      2.70495237      3.52066970
C          -2.73442555      3.12415125      5.11270309
H          -3.75177793      3.52529190      5.27099673
H          -2.10394258      3.36667786      5.98809570
C          -2.73792884      1.60607367      4.85647078
H          -3.72970379      1.21011086      4.58923415
H          -2.00507229      1.33902046      4.06712836
O          -2.26308412      3.80942871      3.97165858
H          -1.23291288      3.57077737      3.79997767
O          -2.24668118      0.89604428      6.01671591
H          -2.86781824      0.99166421      6.76077458
C          -5.96886566     -2.46077708     -3.02313625
H          -5.51559829     -1.66133279     -2.39582144
H          -5.81803472     -2.22167127     -4.09009439
C          -5.45870097     -3.85791089     -2.65744260
H          -4.38648498     -3.99444478     -2.86933454
H          -5.66317293     -4.10517396     -1.59611432
O          -7.37301807     -2.36711244     -2.73981054
H          -7.81035473     -3.20991297     -3.01690628
O          -6.23961256     -4.83594365     -3.36378677
H          -6.00429724     -4.84315921     -4.31310955
          88
 Energy =     -0.80428905 a.u.  #Cluster:   30
C           4.21852043      1.67260786      2.48943722
C           3.01925599      1.58110774      1.77653895
C           2.69483018      0.37847185      1.14554087
C           3.59178598     -0.71367654      1.20182118
C           4.79363465     -0.61485732      1.90380615
C           5.09372255      0.58397077      2.56076871
H           4.47559929      2.60570328      2.98760756
H           2.33895700      2.43488341      1.67552757
H           5.47061637     -1.46738890      1.93790842
H           6.02294177      0.66908134      3.12206519
O           3.25731808     -1.94140204      0.62878251
O           1.58756026      0.22565634      0.32888701
C           3.29228210     -1.93222402     -0.83099278
H           4.30137145     -1.69242155     -1.17230357
H           3.01966388     -2.96571704     -1.07312615
H           2.55257834     -1.21559011     -1.21406609
C           0.26254337      0.21425600      0.90565041
H          -0.31464484      0.11688654     -0.05197234
C          -0.11168834      1.50731234      1.67583444
H           0.40713536      1.52979019      2.66478833
O           0.33346401      2.66217398      1.01483794
H           0.02297410      2.66527302     -0.13937938
C           0.08227476     -1.01128821      1.81908464
H          -0.98911026     -1.20127146      2.03134589
H           0.63705065     -0.90700430      2.76890907
O           0.51927436     -2.20773148      1.17054334
H           1.51017949     -2.14263052      0.97174070
C          -1.62168129      1.61309774      1.84888650
C          -2.45018226      1.53819592      0.71679101
C          -2.16769243      1.92826294      3.09368958
C          -3.79577339      1.87990117      0.81042424
H          -2.01811320      1.25084854     -0.24844094
C          -3.53304200      2.21541366      3.21212678
H          -1.54102083      1.95560504      3.98283599
C          -4.35104490      2.21999085      2.07740164
H          -3.97660611      2.44514404      4.17920033
O          -5.63896815      2.63539280      2.32577132
O          -4.65445128      1.96872264     -0.26712047
C          -6.65162568      2.29425706      1.34251609
H          -6.60803872      1.23063743      1.09519760
H          -7.58485212      2.54057595      1.86898963
H          -6.51431864      2.91240547      0.44928796
C          -4.13257489      1.56047525     -1.56223434
H          -4.97525600      1.79174181     -2.22235434
H          -3.24353869      2.14985099     -1.82886054
H          -3.91163773      0.48868780     -1.55519719
C          -2.56055352      5.09529583     -0.30524258
H          -1.97239709      5.41861830     -1.19072886
H          -3.12470755      4.17976868     -0.58176202
C          -1.71249827      4.83543207      0.93770587
H          -2.34455955      4.87768627      1.85003618
H          -1.29682535      3.77235923      0.88651830
C           0.25226263      5.31453099      2.32866053
H           1.17093414      5.89756328      2.47831603
H          -0.35710427      5.37033168      3.24188478
H           0.55116299      4.23143318      2.19490191
C          -0.98489045      7.19143038      1.28228798
H          -0.14933038      7.90625672      1.27797686
H          -1.69231152      7.47437867      0.46826805
H          -1.54441796      7.31782765      2.22384924
C           0.40828890      5.67570185     -0.08986108
H           1.20025078      6.43417936     -0.06387935
H           0.89061649      4.66586825     -0.13495801
H          -0.14883159      5.76377960     -1.04636743
N          -0.51504485      5.76664571      1.10343811
O          -3.45668099      6.18947424     -0.05970607
H          -4.26536405      5.87111246      0.39299271
Cl         -0.62570816      3.05229852     -1.53437071
C          -0.45629369     -5.00343937      0.31519422
H           0.16485746     -4.45770660      1.05830451
H          -1.50032523     -5.02215983      0.66740099
C          -0.32876193     -4.39013002     -1.08787773
H           0.71643343     -4.42434033     -1.44513227
H          -0.98400102     -4.88064566     -1.82866024
O           0.09564028     -6.32586920      0.32443177
H          -0.46541668     -6.93201963     -0.19514965
O          -0.78457953     -3.03863774     -1.07010770
H          -0.30540031     -2.53298737     -0.34204450
C         -10.54102071      1.71673648      2.30915948
H          -9.96836212      1.97269254      3.22027123
H         -10.85472817      0.65886607      2.36023106
C         -11.73947278      2.65134602      2.08371649
H         -11.45904114      3.71541042      2.16538716
H         -12.22068195      2.47977809      1.10177627
O          -9.58515482      1.90446993      1.25966903
H          -9.92704244      1.54591738      0.41455966
O         -12.77771677      2.33270106      3.01506203
H         -12.53042828      2.61961409      3.91745580
          88
 Energy =     -0.80406900 a.u.  #Cluster:   31
C           4.70071357      2.34494744      0.28904258
C           3.40529760      2.00922886     -0.12053217
C           3.07995517      0.66292268     -0.28336996
C           4.04737261     -0.33842738     -0.05659726
C           5.34566845      0.00078364      0.32568975
C           5.65807821      1.35245022      0.52015997
H           4.95716529      3.39419233      0.43997266
H           2.66409592      2.79578534     -0.31731611
H           6.08998147     -0.77536464      0.51010956
H           6.65540303      1.61857654      0.88160141
O           3.72360366     -1.70116869     -0.08230677
O           1.82517872      0.27585725     -0.76501309
C           3.31540519     -2.19186427     -1.39228854
H           4.15007138     -2.09010713     -2.09109195
H           3.08380026     -3.24238198     -1.19232199
H           2.43305529     -1.63888908     -1.73899668
C           0.73265672      0.18112025      0.19305380
H           0.10757751     -0.59935369     -0.30591257
C           0.02839712      1.56646488      0.18277528
H           0.57944099      2.31145916      0.80464974
O           0.03375656      2.07186502     -1.16260098
H           0.85805475      1.74463073     -1.62890048
C           1.14590553     -0.25367320      1.60014841
H           0.28602852     -0.20437890      2.29986551
H           1.98813419      0.35110673      1.99192298
O           1.51233946     -1.63544700      1.62605028
H           2.27470922     -1.78837548      0.98118696
C          -1.41844630      1.43740812      0.59308174
C          -2.36792857      1.02769828     -0.35142288
C          -1.80118406      1.69779278      1.91644751
C          -3.69912576      0.86399857      0.03871280
H          -2.07724043      0.85205832     -1.39126934
C          -3.13332981      1.55086699      2.30662336
H          -1.06494621      2.02848499      2.64933263
C          -4.08935207      1.13509313      1.36984632
H          -3.44870001      1.75274735      3.32984471
O          -5.36632618      0.91990210      1.86069088
O          -4.61352792      0.50823345     -0.94906964
C          -6.42722601      1.62035440      1.15347486
H          -6.35591403      1.46279344      0.07075697
H          -7.32733452      1.15646994      1.57124056
H          -6.37143659      2.68355188      1.40284394
C          -5.12604475     -0.84497081     -0.79442867
H          -5.85603077     -0.91026983     -1.60843635
H          -4.31073865     -1.56050408     -0.93234870
H          -5.59979156     -0.96476762      0.18568539
C           5.48108542     -2.11175248      6.07661906
H           6.45240975     -1.69251937      6.40403487
H           4.67570842     -1.41627719      6.38143346
C           5.50443632     -2.40641125      4.60779982
H           5.93203324     -1.25949616      4.01333962
H           6.29574543     -3.09966221      4.31085041
C           4.40642393     -2.91336959      2.47877694
H           3.45383125     -3.08271383      1.94622655
H           4.85455465     -1.99432682      2.03251439
H           5.09332382     -3.74247684      2.25733604
C           3.20099398     -1.61704226      4.18071998
H           2.28257838     -1.77351427      3.57742006
H           2.91908728     -1.52476801      5.24076443
H           3.64257699     -0.64564813      3.86667823
C           3.61483203     -4.01946609      4.53026060
H           2.60171085     -4.21164853      4.14908486
H           4.25095492     -4.88357294      4.28678934
H           3.57305125     -3.96391824      5.64171560
N           4.19686188     -2.73669835      3.96863588
O           5.18864880     -3.28129458      6.88036604
H           5.92032607     -3.92140901      6.83084768
Cl          6.17704588      0.03456221      3.21063929
C           0.43904565      6.09376470     -1.91446551
H           1.08564911      5.95825841     -2.80587773
H          -0.62104938      6.08661382     -2.22408361
C           0.73627852      5.04728911     -0.83915398
H           0.42652772      5.38197828      0.16552751
H           0.23009126      4.07619565     -1.07936835
O           0.77124012      7.43534073     -1.48274405
H           0.24357619      7.68665155     -0.69524639
O           2.11637726      4.69511523     -0.82388060
H           2.67798160      5.47300296     -0.48967599
C           4.36321278      7.25186980     -1.29451677
H           5.19900152      6.76082754     -0.76138328
H           4.56327702      8.33468534     -1.39125539
C           4.07190571      6.60391793     -2.65085060
H           4.98992624      6.46844420     -3.25382539
H           3.55316468      5.62892080     -2.53364540
O           3.25104778      7.07259536     -0.39829746
H           2.41629241      7.47001392     -0.79919959
O           3.27515940      7.47127972     -3.46629633
H           2.41833145      7.66240062     -3.01732235
          88
 Energy =     -0.80313424 a.u.  #Cluster:   32
C           2.63693614      2.41204718     -0.51069339
C           1.83599606      1.32318532     -0.86455698
C           2.13648604      0.05869780     -0.34911251
C           3.24362219     -0.10753172      0.51133649
C           4.04652559      0.98268430      0.85764785
C           3.72956998      2.24545111      0.34811822
H           2.40777568      3.40056868     -0.91221363
H           0.98088397      1.44199589     -1.54246689
H           4.89465995      0.83500037      1.52485846
H           4.34446302      3.10334701      0.61963642
O           3.52433775     -1.33868107      1.11093289
O           1.44090507     -1.07501677     -0.74264260
C           4.09075444     -2.31276262      0.19014793
H           5.03240735     -1.93517286     -0.21602966
H           4.25560597     -3.18243719      0.83780850
H           3.36266398     -2.53116917     -0.60723772
C           0.08751355     -1.26626354     -0.22070403
H          -0.09375500     -2.32232420     -0.57913916
C          -0.92283266     -0.37072461     -0.98775955
H          -0.47926499      0.62829511     -1.22582979
O          -1.14650494     -1.08241907     -2.16858339
H          -1.13276440     -0.36284968     -3.16952032
C           0.10968707     -1.29392126      1.30353257
H          -0.87528095     -1.57310474      1.72921189
H           0.46213386     -0.35798101      1.76569526
O           0.97887095     -2.38320828      1.67979095
H           1.93309292     -2.06299334      1.63519454
C          -2.22169750     -0.19876839     -0.22120922
C          -3.32570549     -0.98541496     -0.56701615
C          -2.32164580      0.75505622      0.80190007
C          -4.53684931     -0.80862646      0.10924036
H          -3.24617189     -1.71267773     -1.38029982
C          -3.53166997      0.94378821      1.47234138
H          -1.46244892      1.36922280      1.06636406
C          -4.64583763      0.17253862      1.12018214
H          -3.63085953      1.68725559      2.26125019
O          -5.80917546      0.36944742      1.85714925
O          -5.60939875     -1.56707252     -0.34382989
C          -6.91870900      0.88034325      1.06549197
H          -7.09985844      0.24432397      0.19273805
H          -7.75848514      0.83558081      1.77544445
H          -6.70222604      1.90828168      0.76769979
C          -6.23942161     -2.38807071      0.67618279
H          -7.13010401     -2.75814933      0.15793937
H          -5.56231369     -3.20308727      0.94411997
H          -6.50520948     -1.78834937      1.55486340
C           1.47190311     -4.06718013     -1.49945669
H           2.07769324     -4.92225052     -1.87006700
H           2.10511435     -3.15668983     -1.39329050
C           0.21645829     -3.83532169     -2.35410644
H          -0.36634609     -4.78564998     -2.41811772
H          -0.46090146     -3.08171616     -1.82884244
C          -0.83840158     -3.03928122     -4.41805395
H          -0.72064566     -2.49266132     -5.37279624
H          -1.40490013     -3.96332509     -4.58801108
H          -1.46281852     -2.35496544     -3.78080056
C           1.25620812     -4.33863190     -4.55095361
H           1.29375122     -4.06974388     -5.61954804
H           2.29404359     -4.44747329     -4.19368374
H           0.78373287     -5.33784336     -4.45543652
C           1.28761134     -2.02281327     -3.67656749
H           1.29337626     -1.48048174     -4.64031050
H           0.79583424     -1.31342007     -2.94576392
H           2.31938821     -2.17940720     -3.34337803
N           0.49529558     -3.30487144     -3.75056820
O           1.01597152     -4.49465199     -0.21205413
H           0.97768196     -3.71435076      0.45081560
Cl         -0.81783169      0.20964266     -4.54961861
C         -10.69963557      3.55342166      3.16622738
H         -10.80248805      4.04854333      2.18588591
H         -11.61783353      2.97014996      3.37139909
C          -9.43774683      2.68125406      3.25283562
H          -8.55879411      3.15220338      2.77371406
H          -9.19258459      2.42846363      4.30013445
O         -10.68552089      4.52366258      4.21833676
H         -10.02081584      5.21821550      4.03610374
O          -9.63039714      1.48980623      2.48170862
H         -10.25362891      0.88468145      2.93372516
C           0.12062483     -7.25933917     -1.48964955
H          -0.74274251     -7.92677078     -1.32207121
H          -0.07917531     -6.26931711     -1.01552341
C           1.42739980     -7.87052920     -0.97654848
H           1.24712495     -8.50303305     -0.08482630
H           1.94299076     -8.46947329     -1.75124441
O           0.18074293     -6.93552525     -2.89189499
H           0.31724638     -7.74570209     -3.42002355
O           2.40221298     -6.88805150     -0.62428213
H           1.97573516     -6.12777780     -0.13490147
          88
 Energy =     -0.80122951 a.u.  #Cluster:   33
C           3.35835239      1.91529963     -1.72926345
C           2.22317709      1.11084365     -1.58828744
C           2.23147706      0.09181015     -0.63321209
C           3.38449027     -0.14108536      0.14927613
C           4.51763685      0.66156165      0.00260550
C           4.48942356      1.70069226     -0.93373801
H           3.36286813      2.70797510     -2.47743567
H           1.35239549      1.23877767     -2.23615420
H           5.39498961      0.47327804      0.61996010
H           5.36447949      2.33921933     -1.05298568
O           3.39914521     -1.12126471      1.14263143
O           1.17786992     -0.80740914     -0.50011102
C           3.29801600     -2.48144764      0.61756877
H           4.19156960     -2.70461587      0.02847574
H           3.25655027     -3.08114304      1.53211724
H           2.38532920     -2.58673152      0.01448800
C           0.00343886     -0.36800249      0.22869591
H          -0.47536010     -1.36126216      0.40866616
C          -0.85015682      0.50339447     -0.73440941
H          -0.38002808      1.50398352     -0.89112180
O          -0.91297528     -0.14751851     -1.97634878
H           0.09000369     -0.66874022     -2.29407543
C           0.34466119      0.33096675      1.54657663
H          -0.57629960      0.62006965      2.10194933
H           0.99043347      1.21668779      1.40564951
O           0.98904211     -0.58715117      2.44004550
H           1.88339575     -0.87030547      2.04716665
C          -2.27602529      0.66137885     -0.23414833
C          -3.26148538     -0.18911993     -0.74582630
C          -2.62530398      1.65245885      0.69452241
C          -4.59681513     -0.02401945     -0.37424157
H          -2.98107706     -0.97412486     -1.45090125
C          -3.95615790      1.81030715      1.08873821
H          -1.86587572      2.31532258      1.10922013
C          -4.94977620      0.98707247      0.54343661
H          -4.24093256      2.56868356      1.81883637
O          -6.25296451      1.15442738      1.00559111
O          -5.50438338     -0.83844326     -1.04443169
C          -7.14553622      1.72877822      0.01157983
H          -7.15826854      1.11238385     -0.89279918
H          -8.11149443      1.71018324      0.52797211
H          -6.83321542      2.75299761     -0.20991319
C          -6.38366184     -1.60923196     -0.17983248
H          -7.11577377     -2.01415486     -0.88446916
H          -5.80009958     -2.39867095      0.30158081
H          -6.86043512     -0.96293296      0.56868927
C          -2.85240335     -3.13258729     -6.36331242
H          -2.72612217     -2.07210819     -6.66835955
H          -2.38476295     -3.77953642     -7.13005708
C          -2.25884076     -3.43502389     -4.98199612
H          -2.60273985     -4.43281398     -4.62942608
H          -1.14029691     -3.50037133     -5.07097807
C          -1.88284623     -2.81991328     -2.63750935
H          -1.69695428     -1.91901575     -1.97023597
H          -2.44537765     -3.57217076     -2.07530157
H          -0.85543482     -3.20134464     -2.82454481
C          -4.07016858     -2.33214593     -3.65345967
H          -4.31739402     -1.56353319     -2.88582416
H          -4.62885410     -2.07869648     -4.57730094
H          -4.46771075     -3.29089897     -3.28836096
C          -2.09861134     -1.03407046     -4.34805340
H          -2.09154177     -0.30508896     -3.48946915
H          -1.03221702     -1.05951294     -4.66447004
H          -2.71262316     -0.61047751     -5.15117946
N          -2.58099612     -2.39456730     -3.90860391
O          -4.27076664     -3.30338624     -6.37024487
H          -4.51421900     -4.25087712     -6.41486659
Cl          1.01073892     -1.59293647     -3.26165965
C           0.58515482      0.66963090      5.66612211
H           0.90989742      1.22373974      6.56660077
H           0.40195710     -0.38825264      5.93062152
C          -0.64657613      1.30609979      5.01216473
H          -1.36686095      1.69544943      5.75395136
H          -0.35457641      2.11521988      4.31640932
O           1.71780329      0.76016253      4.80170436
H           1.55397489      0.24014346      3.96100937
O          -1.41875507      0.33714149      4.28876132
H          -0.81953401     -0.22393521      3.73701195
C           5.80751214     -1.94548177     -3.28935346
H           6.40999436     -1.27187311     -3.92793981
H           6.31280808     -2.11512345     -2.32207655
C           4.38671452     -1.40918893     -3.11483005
H           3.67980899     -2.18831988     -2.77267058
H           4.34916140     -0.54747113     -2.42530026
O           5.79281843     -3.24916410     -3.89204980
H           5.23362235     -3.21437866     -4.70108652
O           3.99397847     -0.94853322     -4.42315337
H           3.00880097     -0.86947672     -4.45164302
          88
 Energy =     -0.80098300 a.u.  #Cluster:   34
C           4.25756257      2.58374006     -0.36687833
C           3.06800891      1.86201122     -0.50823095
C           3.01332443      0.55868115     -0.01165339
C           4.13627481     -0.01825047      0.61811817
C           5.32867624      0.69736641      0.73561662
C           5.37493510      2.00772425      0.24958261
H           4.31223659      3.60577268     -0.74316515
H           2.19446556      2.29521072     -1.00227352
H           6.20511124      0.23735749      1.21815207
H           6.29966989      2.58125543      0.35739069
O           4.04615719     -1.26871611      1.23199615
O           1.89589614     -0.25793957     -0.20870157
C           3.95386857     -2.38819898      0.29276184
H           4.79803135     -2.34531000     -0.41294670
H           4.01885155     -3.25830179      0.95212454
H           3.00040309     -2.33802222     -0.24149198
C           0.74906544     -0.04493218      0.65003998
H           0.24116576     -1.04592992      0.52192572
C          -0.10180696      1.10736021      0.05047373
H           0.23434216      2.11064824      0.40799557
O           0.09043399      1.17696102     -1.36479561
H           0.63216833      0.40882529     -1.68047719
C           1.10360455      0.20592371      2.11675480
H           0.19252908      0.32383313      2.73864179
H           1.75283130      1.09450054      2.23902639
O           1.76891291     -0.92256403      2.69448710
H           2.58479960     -1.17192691      2.12238056
C          -1.56371383      0.87572924      0.36312734
C          -2.30448037     -0.06092285     -0.36647008
C          -2.15723151      1.58596499      1.41628233
C          -3.64487341     -0.28955617     -0.03406014
H          -1.86124890     -0.60201457     -1.20372133
C          -3.50163417      1.38525584      1.73227717
H          -1.58236463      2.31860517      1.98142523
C          -4.25488308      0.45802838      1.00162314
H          -3.98347273      1.94234983      2.53580205
O          -5.56337956      0.27000476      1.41703214
O          -4.32666912     -1.21113539     -0.81102160
C          -6.56252916      0.51556145      0.38751173
H          -6.33587481     -0.04826603     -0.52479062
H          -7.47928787      0.15576383      0.86794479
H          -6.60920509      1.58984234      0.18900773
C          -4.85237166     -2.34386968     -0.05634716
H          -5.32550090     -2.93974151     -0.84189051
H          -4.02600498     -2.88344313      0.42624418
H          -5.57126109     -2.00392715      0.69619073
C           6.49789108     -1.98870008      6.26831939
H           7.34336243     -1.68464150      6.91804160
H           5.81420306     -2.64293280      6.84089075
C           5.84597325     -0.76820980      5.67079535
H           5.81922948      0.08068171      6.36168936
H           6.68101609     -0.32909825      4.74064355
C           4.10134632      0.35221880      4.38006733
H           3.12428051      0.25617276      3.87464639
H           4.03096952      1.13834570      5.14596585
H           4.84491814      0.70105569      3.62730360
C           3.46472754     -1.44837310      5.93058681
H           2.49291273     -1.56378148      5.41904764
H           3.73282571     -2.42999207      6.36032344
H           3.33269667     -0.74157419      6.76411366
C           4.67537960     -1.98076193      3.85572575
H           3.70570897     -2.20766449      3.38696329
H           5.35498322     -1.59713699      3.05794545
H           5.14568362     -2.92066839      4.21754311
N           4.54052412     -0.97217099      4.97348607
O           7.00667908     -2.87681464      5.26051372
H           7.57540685     -2.37457518      4.61945457
Cl          7.49827223      0.06699034      3.45108958
C          -2.03540597     -2.30895434      2.51358804
H          -1.78656182     -2.12636367      3.57471847
H          -2.37286830     -1.36597491      2.04426671
C          -0.86187096     -2.96938811      1.77446434
H          -1.13539574     -3.97952076      1.41035473
H          -0.50823719     -2.35864822      0.91681205
O          -3.19877342     -3.14282794      2.42203272
H          -3.07729803     -3.95128106      2.96371884
O           0.21152945     -3.20383024      2.68459136
H           0.77914249     -2.38480593      2.76865485
C           5.26363810      0.47075841     -3.03177541
H           4.76805162      1.40316908     -3.34732169
H           5.76463597      0.62705034     -2.05218057
C           4.30155226     -0.71999683     -2.99145616
H           3.44183489     -0.54769554     -2.31560316
H           3.93131544     -0.99490436     -3.99566830
O           6.36550620      0.16983493     -3.89850661
H           6.07981069      0.16329298     -4.83371039
O           4.95390048     -1.86783291     -2.43012987
H           5.86796840     -1.93179525     -2.80589583
          88
 Energy =     -0.79930111 a.u.  #Cluster:   35
C           3.38514983      3.62908551      0.67260056
C           2.40971813      2.77424714      0.15114337
C           2.64215917      1.39700509      0.16001236
C           3.83745287      0.88552881      0.71339563
C           4.81592924      1.74203159      1.22030614
C           4.57829082      3.12195391      1.19786583
H           3.20488833      4.70417837      0.66133039
H           1.46371865      3.17411448     -0.24269484
H           5.73471861      1.32994973      1.63249409
H           5.33164160      3.80189145      1.59475071
O           4.01644649     -0.48952799      0.87422183
O           1.80404260      0.47312043     -0.44867850
C           4.16096494     -1.21993328     -0.37885208
H           5.06456167     -0.88446677     -0.89395868
H           4.25595359     -2.25602110     -0.04019114
H           3.26843514     -1.07658206     -1.00210611
C           0.49179505      0.23805069      0.12364167
H           0.23282992     -0.69682781     -0.43194017
C          -0.47501039      1.39736935     -0.21152461
H          -0.02589329      2.38676958      0.10167632
O          -0.56742848      1.57572911     -1.62911026
H          -0.90344669      0.76923308     -2.06908349
C           0.58117426     -0.02039436      1.63321096
H          -0.40718775     -0.30721662      2.05320605
H           0.97730992      0.85545077      2.18035388
O           1.41671805     -1.15233814      1.90345038
H           2.34233764     -0.99002063      1.53833403
C          -1.84588107      1.19039299      0.38332317
C          -2.66931589      0.13460208     -0.01436226
C          -2.30792990      2.12859545      1.32305217
C          -3.97321041      0.04065532      0.49160583
H          -2.33540208     -0.61485689     -0.72855975
C          -3.58558892      2.02914195      1.85527636
H          -1.64728943      2.94559093      1.62819329
C          -4.43473953      0.98075414      1.44255489
H          -3.95571461      2.73738997      2.59612132
O          -5.67464447      1.07081749      2.01271885
O          -4.82838790     -0.91361778     -0.04488538
C          -6.57253494     -0.06232381      1.89448932
H          -6.13563352     -0.93110115      2.40314527
H          -7.45952475      0.30421379      2.42253727
H          -6.77433104     -0.27732131      0.83828572
C          -4.61904203     -2.26976206      0.44003547
H          -5.08945233     -2.87448486     -0.33824575
H          -3.55857830     -2.49755753      0.55766582
H          -5.13783061     -2.37412408      1.40111701
C          -1.69725264     -4.37312284      5.75929236
H          -1.42571144     -3.46691386      6.33274539
H          -2.74311707     -4.63856317      6.00366463
C          -1.53453637     -4.22911622      4.27229470
H          -1.79853187     -5.13710812      3.71874419
H          -2.48153391     -3.37225379      3.89564568
C          -0.31192921     -3.52611199      2.27352904
H           0.55486742     -2.95961897      1.87239686
H          -0.34193621     -4.50700477      1.78392196
H          -1.22136671     -2.96531334      1.96836951
C           0.94119836     -4.51995374      4.14541305
H           1.89611126     -4.03244965      3.89405482
H           0.93341630     -4.74478688      5.23656822
H           0.90623450     -5.48582008      3.62046432
C          -0.02368174     -2.26962463      4.37254889
H           0.83155080     -1.75385840      3.88860200
H          -0.92461118     -1.63477761      4.21444682
H           0.16099160     -2.32116048      5.45669449
N          -0.24423884     -3.64717595      3.78315603
O          -0.81731377     -5.37125200      6.32774594
H          -1.09642229     -6.26255374      6.04640269
Cl         -3.36625184     -2.18571155      3.34562913
C          -2.16880545      4.31670572     -1.90786585
H          -1.72206656      3.35997110     -1.55170208
H          -1.54741211      4.72723003     -2.72298455
C          -3.63240372      4.15266225     -2.33210633
H          -4.17525928      3.43368892     -1.69127254
H          -4.17721566      5.11534480     -2.34521302
O          -2.09690448      5.17413715     -0.75331867
H          -2.20260486      6.11295135     -1.01243198
O          -3.67698779      3.72553187     -3.69810077
H          -3.31972887      2.81651259     -3.77552284
C          -0.06850159      5.16421798      2.01697662
H           0.57800158      6.04499021      1.84391986
H           0.37834466      4.51520597      2.79102313
C          -1.50668854      5.59617391      2.33877435
H          -2.18482422      5.40470104      1.47276622
H          -1.91940913      5.10355131      3.23308042
O          -0.03745099      4.34645305      0.84361377
H          -0.64791450      4.73213524      0.14021559
O          -1.57268806      7.01867705      2.48725067
H          -1.18070469      7.29749967      3.33614235
          88
 Energy =     -0.79928176 a.u.  #Cluster:   36
C           2.99742683      1.63576212     -0.30902115
C           1.85950436      0.89948419     -0.64854795
C           1.70623711     -0.39063676     -0.13056365
C           2.70837967     -0.95071972      0.69082563
C           3.84615767     -0.21172383      1.02400893
C           3.97563633      1.08973309      0.52981287
H           3.12385632      2.64027056     -0.71460640
H           1.10602465      1.29987461     -1.33977255
H           4.60831448     -0.65689611      1.65990750
H           4.85466310      1.67820369      0.79032199
O           2.55550328     -2.22686971      1.23546249
O           0.65273935     -1.21272225     -0.51175294
C           2.79630270     -3.28845433      0.26139345
H           3.87574903     -3.39738917      0.12988795
H           2.35332326     -4.16369889      0.74126137
H           2.30785015     -3.05541216     -0.70110685
C          -0.65707946     -0.96584316      0.04693012
H          -1.18671741     -1.85290767     -0.37580756
C          -1.24549218      0.36670328     -0.48573667
H          -0.68441722      1.23306302     -0.05301728
O          -1.09193604      0.39745656     -1.86717977
H          -1.37040119      1.63420966     -2.31350195
C          -0.62917466     -0.99566142      1.58379796
H          -1.64418758     -0.89957868      2.01023364
H           0.02202550     -0.20380544      1.99872902
O          -0.17999096     -2.26738729      2.04874629
H           0.77272077     -2.40151359      1.74294495
C          -2.73138572      0.47160142     -0.15207037
C          -3.62020830     -0.42812447     -0.74790069
C          -3.21620688      1.49846209      0.67411500
C          -4.99353490     -0.26170745     -0.56964236
H          -3.24517710     -1.21720034     -1.41731827
C          -4.58841058      1.65892456      0.86991222
H          -2.52056464      2.20354946      1.13277720
C          -5.48096628      0.78578683      0.23338075
H          -4.97943023      2.46698366      1.48490487
O          -6.85604541      0.92134058      0.45288687
O          -5.92297071     -1.15519493     -1.09488516
C          -7.48760651      1.78410701     -0.53905852
H          -7.36333987      1.34944874     -1.53741641
H          -8.53371751      1.79356996     -0.22604356
H          -7.04567602      2.78529098     -0.48770765
C          -5.72762734     -1.49172395     -2.50362559
H          -6.35591613     -2.37113622     -2.63556732
H          -6.06973384     -0.63680779     -3.10915874
H          -4.66484276     -1.69416771     -2.72909348
C          -9.25731172     -4.28885455      1.69951432
H          -8.67197537     -4.87225519      0.95503700
H          -9.73267731     -4.99108038      2.41176134
C          -8.39916362     -3.26337323      2.46127816
H          -9.06387968     -2.57083236      3.02960406
H          -7.78129897     -3.79905000      3.22012830
C          -6.61868815     -1.55554451      2.45648363
H          -5.96139735     -0.89401861      1.83987522
H          -7.22300630     -0.86910164      3.07373916
H          -5.96031686     -2.14392612      3.11488153
C          -8.30218350     -1.54720198      0.65941027
H          -7.63726229     -0.96399544     -0.04251798
H          -9.00838631     -2.13418812      0.04133436
H          -8.87348751     -0.79198172      1.21900973
C          -6.58769770     -3.32416537      0.74445316
H          -5.91793311     -2.70964838      0.07753427
H          -5.94147001     -3.95918046      1.36827351
H          -7.17216460     -3.96505278      0.06171533
N          -7.48142497     -2.42757776      1.56791222
O         -10.24542968     -3.64846415      0.89969743
H         -11.01671163     -3.36350674      1.43742675
Cl         -1.82620779      2.96163359     -2.62295863
C           0.54593127     -1.56927479     -4.01258216
H           1.02799593     -1.57281568     -5.00575280
H          -0.55526601     -1.60467424     -4.11555231
C           1.07308128     -2.69815624     -3.11279279
H           0.48949689     -2.77019196     -2.17406404
H           1.11614334     -3.67428466     -3.61834760
O           0.95759703     -0.32728392     -3.44005300
H           0.34712953     -0.09881635     -2.64735894
O           2.43575547     -2.41821650     -2.74414078
H           2.51888510     -1.42075619     -2.66919834
C          -3.87138079      0.97819027     -4.04230403
H          -3.91658380      1.05477936     -2.93737495
H          -3.55877755      1.95602514     -4.45142749
C          -2.96604231     -0.17492776     -4.49609678
H          -3.48098783     -0.83571420     -5.21633161
H          -2.02687489      0.21064970     -4.93973370
O          -5.24679194      0.73783755     -4.41386496
H          -5.35306939      0.82154528     -5.37850392
O          -2.63390649     -1.03692484     -3.41128911
H          -1.98599931     -0.52518726     -2.74359716
          88
 Energy =     -0.79915322 a.u.  #Cluster:   37
C           1.40495061      2.77532552     -0.55638568
C           0.46389044      1.83207452     -0.98064525
C           0.76928018      0.47159659     -0.89515959
C           2.03222056      0.06047995     -0.40381339
C           2.97070467      1.00728264      0.01509470
C           2.64384090      2.36619361     -0.05417769
H           1.16836173      3.83621386     -0.61883109
H          -0.50695458      2.13756259     -1.37957710
H           3.93348861      0.67609236      0.39960271
H           3.36662124      3.10854258      0.28171552
O           2.35026208     -1.27761682     -0.20871448
O          -0.08712544     -0.50689161     -1.37482386
C           2.32860608     -2.09162710     -1.42002287
H           3.13243402     -1.76699896     -2.08690152
H           2.53174470     -3.09705680     -1.02746790
H           1.34563372     -2.03438726     -1.90441436
C          -1.29271379     -0.80617569     -0.60834204
H          -1.53495037     -1.80778202     -1.05687352
C          -2.38776106      0.22621815     -0.97232688
H          -1.90811530      1.20886409     -1.22358857
O          -3.03992572     -0.13786945     -2.17087309
H          -3.39512091     -1.19990980     -2.15577845
C          -0.98621520     -0.92470398      0.89170721
H          -1.89185013     -1.16639541      1.48263463
H          -0.52513174     -0.00580022      1.29669464
O          -0.13737562     -2.04295090      1.14126500
H           0.75176582     -1.89697629      0.70995315
C          -3.47749815      0.40299039      0.07610859
C          -4.22627602     -0.71712728      0.48038634
C          -3.84858389      1.68134396      0.49476596
C          -5.40997183     -0.52725052      1.17813151
H          -3.89217973     -1.72513992      0.20396955
C          -5.03220896      1.88248664      1.22470849
H          -3.23395968      2.54408582      0.24070675
C          -5.83798953      0.78964833      1.52050814
H          -5.31166892      2.88449540      1.53842169
O          -7.09973669      0.81071717      2.08227072
O          -6.30619993     -1.50638073      1.54455179
C          -7.47242003      1.99032861      2.83647532
H          -7.43590700      2.88351617      2.21067223
H          -8.50395973      1.74715397      3.12946632
H          -6.82801946      2.07343270      3.72668577
C          -5.86478874     -2.88476042      1.38452378
H          -6.75840299     -3.43887363      1.69559403
H          -5.60825866     -3.08993174      0.33393447
H          -5.01870670     -3.08460183      2.04837037
C          -7.55476884     -1.87062159     -4.22572950
H          -7.11519132     -2.55945694     -4.97313079
H          -7.88077816     -2.46940238     -3.34908847
C          -6.55022923     -0.77577521     -3.86539860
H          -5.54583697     -1.27350497     -3.66479210
H          -6.38144918     -0.09513809     -4.72612171
C          -5.76885223      0.96723140     -2.31954200
H          -5.91166086      1.50642397     -1.37033941
H          -4.79152154      0.38210653     -2.19160228
H          -5.57210694      1.69579305     -3.11645752
C          -7.21733932     -0.82643821     -1.45088543
H          -7.41083605     -0.23928261     -0.53433129
H          -8.08609500     -1.48208029     -1.62323731
H          -6.34473751     -1.48831498     -1.22047960
C          -8.15304407      0.89047187     -2.93623153
H          -8.49236521      1.43567625     -2.04073362
H          -7.96181259      1.62652878     -3.73205755
H          -8.99148165      0.24544976     -3.28493775
N          -6.92498158      0.05524153     -2.63972288
O          -8.77844332     -1.31041184     -4.71938252
H          -8.69927827     -1.07015673     -5.66418525
Cl         -4.36865524     -2.57822425     -2.15869800
C           5.79602184     -4.37798444     -1.06694941
H           5.53616335     -5.06633815     -1.89466668
H           5.63276402     -4.89571138     -0.10714602
C           7.22628918     -3.83509032     -1.21154746
H           7.25255402     -2.95620322     -1.88176372
H           7.68726706     -3.57287541     -0.24126746
O           4.85789343     -3.30894598     -1.22112462
H           4.84792395     -2.72949768     -0.42796414
O           8.08987515     -4.86313022     -1.70784021
H           7.88193414     -5.06218299     -2.64360470
C          -5.35022106      0.34585986      5.15951594
H          -6.07282770      1.11479584      4.81159676
H          -5.03899168      0.57699670      6.19552230
C          -5.93544816     -1.06668046      5.02242317
H          -5.24051763     -1.74018902      4.48840600
H          -6.18728989     -1.50655474      6.00642176
O          -4.12481469      0.47621415      4.43217301
H          -4.27274916      0.34221287      3.47297716
O          -7.19841917     -1.02855782      4.35727751
H          -7.07677538     -0.83568106      3.38763996
          88
 Energy =     -0.79875948 a.u.  #Cluster:   38
C           4.20759487      2.18834924      0.73355907
C           2.97039731      1.53678172      0.63694253
C           2.93105355      0.13414050      0.64602436
C           4.12471681     -0.59606358      0.83964170
C           5.36650560      0.05394919      0.84404667
C           5.40006429      1.44934539      0.79747341
H           4.24341635      3.28054143      0.74237655
H           2.04815191      2.12699479      0.52397351
H           6.28735253     -0.51964224      0.89699488
H           6.35907480      1.96773625      0.80494316
O           4.05704684     -1.95107865      1.20247664
O           1.83213377     -0.65701347      0.37730307
C           3.95968798     -2.91197647      0.11185423
H           4.82707278     -2.81918381     -0.55370193
H           3.94896790     -3.86746263      0.65855519
H           3.00567782     -2.74504973     -0.41472801
C           0.59424709     -0.47357365      1.13263455
H           0.00578028     -1.32446542      0.70339952
C          -0.07442366      0.88626214      0.81047444
H           0.42575605      1.70208142      1.40395300
O           0.25652369      1.25849814     -0.53572435
H          -0.16365249      0.65449131     -1.18757045
C           0.92271820     -0.69178935      2.61162106
H           0.02539261     -0.61869106      3.26943613
H           1.70240459      0.02373883      2.97417320
O           1.43740236     -2.03477898      2.81337145
H           2.08392495     -2.23035511      2.08209092
C          -1.57879434      0.85494804      0.96083482
C          -2.32854288     -0.17020454      0.35454620
C          -2.21428595      1.88512217      1.66082423
C          -3.72567790     -0.16394828      0.45928877
H          -1.85356650     -0.97704147     -0.21199553
C          -3.60879867      1.91084107      1.75694473
H          -1.63145217      2.67152480      2.15485011
C          -4.37031153      0.90220592      1.15048707
H          -4.07594121      2.70659330      2.34282149
O          -5.75207265      0.86706515      1.17863069
O          -4.32924573     -1.23266795     -0.17345476
C          -6.38591609      1.52829023      2.30831780
H          -6.47298336      2.59879829      2.09345374
H          -7.37659381      1.05927035      2.32102797
H          -5.83364466      1.33599065      3.24512505
C          -5.78287160     -1.31238395     -0.14224693
H          -5.98330075     -2.24119872     -0.68866850
H          -6.13019645     -1.36483897      0.90024653
H          -6.22860403     -0.45524824     -0.66750314
C           5.41713176     -1.19066664      3.89393895
H           5.61402478     -0.28340165      3.27877559
H           6.08128275     -1.22355242      4.77853402
C           3.93044815     -1.29677930      4.23701734
H           3.36299028     -0.41282889      3.83833090
H           3.48408974     -2.15341749      3.65135041
C           2.11627485     -1.87713047      5.74978171
H           1.75552169     -2.05044531      6.77678188
H           1.47261239     -1.09787964      5.25960561
H           1.93494496     -2.78648944      5.13094546
C           3.72171100     -0.13088792      6.41583450
H           3.29831294     -0.17039759      7.44570876
H           4.77375629      0.21753771      6.44715035
H           3.13170190      0.64806476      5.85167484
C           4.43479763     -2.51578234      6.37642387
H           4.13370154     -2.69860756      7.41665281
H           4.38456294     -3.49752866      5.82973984
H           5.51592582     -2.27117834      6.39672256
N           3.58142018     -1.46569304      5.71163794
O           5.80487293     -2.35161806      3.13861966
H           5.38634012     -2.32013991      2.20670288
Cl          1.03593780      1.90866599      4.49672529
C           5.80529586     -5.46164702      4.52593398
H           6.01789154     -6.05345386      3.61478374
H           5.43731563     -6.13394128      5.32657156
C           7.03938541     -4.66274887      4.96568483
H           7.99176185     -5.19859233      4.76500425
H           7.08055938     -3.66615190      4.45350760
O           4.68391026     -4.61056418      4.24162962
H           5.00388689     -3.79814146      3.73157337
O           6.96303010     -4.30720847      6.35675798
H           7.01212750     -5.09475203      6.94691107
C          -3.43818692      1.46559864      5.63351209
H          -4.18874712      1.26349685      6.42622326
H          -3.37960773      2.55736521      5.44696604
C          -2.05481591      0.85172789      5.95695026
H          -1.41814870      1.56946172      6.50608567
H          -2.14616727     -0.07077131      6.56388623
O          -3.96814747      0.87088092      4.44011655
H          -3.17590519      0.61763988      3.85767696
O          -1.43868378      0.46330650      4.72370600
H          -0.63404557      1.14743169      4.50969200
          88
 Energy =     -0.79856069 a.u.  #Cluster:   39
C           3.45924101      2.63711121     -1.66608304
C           2.36169227      1.80864511     -1.42290274
C           2.44834605      0.83634489     -0.42186929
C           3.65182988      0.66360806      0.29576450
C           4.74086927      1.51368480      0.06662610
C           4.63166490      2.50316660     -0.91403389
H           3.39959172      3.39145860     -2.45055633
H           1.43831842      1.89157011     -2.01520084
H           5.64277108      1.41231260      0.65851494
H           5.47231660      3.17028001     -1.09697180
O           3.82103001     -0.28158354      1.30282388
O           1.41241844     -0.05570180     -0.16117319
C           3.20158589     -1.58179099      1.04964384
H           3.22112111     -1.82820631     -0.02837401
H           3.82351325     -2.26942418      1.63386109
H           2.16293800     -1.54519982      1.40279177
C           0.24999253      0.44419220      0.55319506
H          -0.16027097     -0.53427400      0.91525286
C          -0.70634695      1.11659355     -0.47299732
H          -0.58704181      2.22658087     -0.49893490
O          -0.36201600      0.71707032     -1.79760123
H           0.26947547     -0.07356524     -1.77989194
C           0.59588083      1.36556678      1.72777046
H          -0.32330504      1.70151322      2.25191549
H           1.18506027      2.24492217      1.41178147
O           1.30260374      0.65871220      2.74904697
H           2.19517413      0.38139351      2.41671806
C          -2.14191802      0.74599163     -0.16429331
C          -2.77554088     -0.28847706     -0.86524493
C          -2.82898672      1.45448713      0.82734819
C          -4.09580827     -0.62258182     -0.56328814
H          -2.22043957     -0.82115197     -1.65148918
C          -4.15022906      1.12659227      1.13880852
H          -2.34865669      2.27044246      1.36297532
C          -4.79317052      0.08921336      0.45135064
H          -4.69874031      1.66513955      1.90968304
O          -6.08457167     -0.11588683      0.88813071
O          -4.81726969     -1.62857404     -1.17908104
C          -6.89335474     -1.08962242      0.18299004
H          -6.45035827     -2.08689691      0.28647291
H          -7.85060058     -1.01309282      0.70863739
H          -6.98361788     -0.81184420     -0.87212127
C          -4.18964932     -2.29944452     -2.30253260
H          -4.04420012     -1.59262413     -3.12403435
H          -3.23280728     -2.75332388     -2.00021660
H          -4.93116968     -3.06426409     -2.55070206
C           9.19563119     -2.71731401      1.97944427
H           8.52675086     -3.48139891      2.43369374
H          10.17370092     -3.18500924      1.76036979
C           8.60379316     -2.09061966      0.70715952
H           9.15117859     -1.15061293      0.46470630
H           8.77018172     -2.77963935     -0.15560653
C           6.67125839     -1.17852601     -0.51408936
H           5.56000407     -0.99122659     -0.52671739
H           7.17120863     -0.22938328     -0.73957357
H           6.79112602     -1.87666399     -1.36607285
C           6.84365761     -0.79148776      1.91060726
H           5.75254826     -0.55159046      1.97015630
H           7.16278961     -1.18428680      2.89570701
H           7.38252567      0.15543623      1.75376555
C           6.33634208     -3.04822690      1.05809638
H           5.24803889     -2.83269767      1.19038670
H           6.37243585     -3.75289705      0.18742042
H           6.68655053     -3.58057630      1.95360561
N           7.10953978     -1.78023238      0.79897327
O           9.32636180     -1.74613666      3.01514759
H          10.12681587     -1.19374759      2.88913671
Cl          1.91440777     -1.82518194     -2.30424522
C          -0.77594015     -0.89279518     -4.52811012
H          -1.46907964     -0.52767941     -5.30537242
H          -0.83559093     -0.22574320     -3.64164710
C          -1.03705826     -2.35638011     -4.14637588
H          -1.96209228     -2.75477684     -4.59577226
H          -0.17858196     -2.99534778     -4.42675580
O           0.50638989     -0.76609727     -5.15027834
H           1.22099545     -0.92582734     -4.48255401
O          -1.28082532     -2.47460737     -2.73683173
H          -0.43059573     -2.37909360     -2.23558126
C           4.33274092     -4.65263109     -1.36795491
H           3.79169355     -4.24197209     -0.49446834
H           3.73200125     -5.45407382     -1.82495047
C           4.70948128     -3.53831755     -2.35779940
H           5.76550414     -3.62114357     -2.66659724
H           4.05788445     -3.56671755     -3.25475576
O           5.52357870     -5.23352940     -0.78210272
H           5.97627509     -5.79665856     -1.43395260
O           4.57623205     -2.28145132     -1.72655035
H           3.51803719     -1.91557554     -1.92365707
          88
 Energy =     -0.79733164 a.u.  #Cluster:   40
C           3.05785936      3.58326545     -0.62501581
C           2.09081439      2.63464677     -0.97365700
C           2.22978295      1.31964459     -0.52375885
C           3.36127582      0.94965079      0.23945526
C           4.32625089      1.89975377      0.58391446
C           4.15832269      3.22208857      0.15824535
H           2.94841999      4.61193110     -0.98517296
H           1.24981564      2.91099168     -1.61780699
H           5.18732144      1.59925921      1.17809354
H           4.90078090      3.97157676      0.42908673
O           3.52441963     -0.33940340      0.74692509
O           1.35140164      0.31853593     -0.91620102
C           3.66940002     -1.36235623     -0.28198704
H           4.58277295     -1.17660831     -0.85175591
H           3.74230680     -2.27972080      0.31155839
H           2.78269683     -1.36854188     -0.93049895
C           0.07255669      0.21787648     -0.23716550
H          -0.23086640     -0.79603579     -0.59517520
C          -0.89275128      1.30392426     -0.77779314
H          -0.47061309      2.32340740     -0.61643113
O          -1.07028973      1.07493707     -2.16068104
H          -0.53258306      1.83591099     -2.79055191
C           0.20411363      0.26628598      1.29356998
H          -0.78589818      0.17452626      1.78455863
H           0.70417156      1.18973368      1.63794710
O           0.91307886     -0.87129505      1.77644680
H           1.87422759     -0.80222828      1.49867891
C          -2.28178069      1.18516353     -0.17018855
C          -3.17396687      0.25837118     -0.72646150
C          -2.70240798      2.03079054      0.86509374
C          -4.50027040      0.23081175     -0.29340270
H          -2.83633984     -0.42509286     -1.50859732
C          -4.02012226      1.98199011      1.32529379
H          -2.00586380      2.74400511      1.30977249
C          -4.93003468      1.09158542      0.73927406
H          -4.36238850      2.63104946      2.13148687
O          -6.20081511      1.04959496      1.29504239
O          -5.37301427     -0.59285886     -1.00338601
C          -7.28041846      1.33811978      0.36629065
H          -7.22865433      0.68247570     -0.50925723
H          -8.16854194      1.12968383      0.97397747
H          -7.23448255      2.39227842      0.07996565
C          -5.87735135     -1.71577160     -0.22621084
H          -6.60616901     -2.16791859     -0.90550722
H          -5.05196981     -2.39973568     -0.00737628
H          -6.34977879     -1.35545032      0.69509451
C          -4.96675852      3.04089492     -5.82796496
H          -5.06116488      3.67739773     -4.92263030
H          -4.85301097      3.69743233     -6.71160207
C          -3.80149398      2.04612437     -5.74871006
H          -3.91657473      1.26225205     -6.52894033
H          -2.83940130      2.58191929     -5.97746711
C          -2.45390957      0.44487113     -4.46513409
H          -2.19065927      0.03507168     -3.45551795
H          -2.61806158     -0.39019507     -5.15447694
H          -1.52869070      0.98912501     -4.76816998
C          -4.86791448      0.55612907     -4.04080575
H          -4.81125794      0.16402317     -3.00115494
H          -5.79742380      1.15717703     -4.11802503
H          -4.98658300     -0.30870572     -4.71060322
C          -3.42565834      2.42538574     -3.32185276
H          -2.70394588      2.04903817     -2.53816831
H          -2.91793648      3.32738338     -3.71914477
H          -4.35288213      2.72267368     -2.81831524
N          -3.64453740      1.37460925     -4.38349167
O          -6.22142068      2.35834299     -5.87526528
H          -6.40528665      2.01482787     -6.77329784
Cl         -0.36314051      3.06796400     -3.91361930
C           0.85160423      6.06009856     -3.74310605
H           0.80685479      5.49248448     -4.68959915
H           1.45469866      6.97455050     -3.88045298
C          -0.54741527      6.38093037     -3.19387767
H          -1.29952304      5.62797230     -3.49333298
H          -0.52920182      6.46964786     -2.09287495
O           1.57963791      5.31249486     -2.76299724
H           1.27727574      4.36253581     -2.78190470
O          -1.04642536      7.59842386     -3.75996933
H          -0.39688360      8.34039437     -3.60621684
C           0.10974702      9.61226787     -5.94518831
H           0.22401228      9.21853046     -6.97264229
H          -0.69710110      9.05505267     -5.41858002
C           1.42301714      9.55568143     -5.15951851
H           2.01543974      8.65651505     -5.40136025
H           2.02991909     10.46732595     -5.31183313
O          -0.29322277     10.96805626     -6.15821967
H          -0.52137336     11.38633237     -5.29917930
O           1.02432426      9.50698841     -3.76752100
H           1.79571996      9.31081418     -3.19759674
          88
 Energy =     -0.79642450 a.u.  #Cluster:   41
C           3.84678441      3.09837238      1.69358942
C           2.58687432      2.70629744      1.23586987
C           2.43064174      1.42387309      0.70301839
C           3.52860958      0.54043324      0.63332723
C           4.79301056      0.94703478      1.07219657
C           4.94061676      2.22890560      1.60860444
H           3.98877264      4.09890701      2.12239772
H           1.72362679      3.37683334      1.29328808
H           5.63565753      0.25835244      0.99951548
H           5.91773543      2.55834780      1.96836096
O           3.37698874     -0.79261437      0.26479152
O           1.22406332      1.00960296      0.14085852
C           2.96664162     -1.01053307     -1.11759641
H           3.74536099     -0.64093220     -1.78932398
H           2.88633879     -2.10436458     -1.15919472
H           2.00319105     -0.52220666     -1.30598158
C           0.15817753      0.59310067      1.04338226
H          -0.39428309     -0.10308847      0.35948493
C          -0.67898044      1.85003988      1.40063698
H          -0.41448503      2.25758964      2.40650186
O          -0.34248643      2.94276439      0.52510617
H           0.06766920      2.59611439     -0.31036664
C           0.64559033     -0.14537798      2.29098035
H          -0.20272943     -0.41225836      2.95904962
H           1.39564047      0.43689094      2.85962175
O           1.20194483     -1.41901671      1.95030398
H           1.92569526     -1.30841470      1.25894746
C          -2.15900357      1.56990632      1.28357157
C          -2.72569446      1.29698940      0.03154181
C          -2.96257980      1.62403099      2.42604127
C          -4.11035544      1.11679498     -0.07780786
H          -2.11572700      1.23407248     -0.86713613
C          -4.34402329      1.43603323      2.32532134
H          -2.53100185      1.82848524      3.40598525
C          -4.93011645      1.18921364      1.08074238
H          -4.97489802      1.51887787      3.21808485
O          -6.27731848      0.95382975      0.89639720
O          -4.51625276      0.92510177     -1.37991336
C          -7.19636113      1.64592640      1.79056715
H          -7.27505319      2.69066414      1.46742236
H          -8.12499212      1.08948372      1.63530125
H          -6.86456729      1.60596011      2.83394866
C          -5.91215134      0.60545953     -1.61585972
H          -5.91796410      0.39909246     -2.69118670
H          -6.20451857     -0.27492002     -1.03162641
H          -6.53744551      1.46568393     -1.35637908
C          -4.21735640      7.26775935      2.18997135
H          -3.19370829      7.06593485      2.56824747
H          -4.33277975      8.35866524      2.03093642
C          -4.51840754      6.49738178      0.87886694
H          -5.47568452      5.92872308      1.07143884
H          -4.75421837      7.20078295      0.05689011
C          -4.11394480      4.40089282     -0.35606831
H          -3.38111561      3.66482081     -0.73629544
H          -4.80101745      3.83187617      0.32061935
H          -4.70948101      4.77315320     -1.20094885
C          -2.65080106      4.90939481      1.54298146
H          -1.82905415      4.26671528      1.16343594
H          -2.23045505      5.67504528      2.21644330
H          -3.30056902      4.25655600      2.18387265
C          -2.47457830      6.24183396     -0.50328900
H          -1.66614879      5.56737215     -0.84293214
H          -2.97955337      6.63429232     -1.40095789
H          -1.99914943      7.09033612      0.01751403
N          -3.44214209      5.51805216      0.41356043
O          -5.15872271      6.95030669      3.17070756
H          -5.31669929      5.86396104      3.25200928
Cl         -5.55214633      4.17221447      2.89273911
C           5.54768727      5.89436542      0.42623104
H           6.03625074      4.92222677      0.20740462
H           6.26875952      6.70703328      0.24188034
C           4.24930009      6.05790213     -0.37718228
H           3.38512203      6.23818933      0.28781291
H           4.31641649      6.86572627     -1.13073602
O           5.25660699      5.81018014      1.82912801
H           5.06989587      6.69560313      2.19805627
O           4.00498708      4.90250422     -1.18243643
H           3.81367461      4.12079397     -0.61600400
C           4.62601721     -2.49075708      2.66929911
H           4.14139119     -2.27966906      1.69510402
H           5.71623546     -2.34897508      2.57469341
C           4.01308619     -1.66686808      3.81120691
H           4.56872437     -1.79690972      4.76035572
H           3.93601634     -0.59625539      3.56407127
O           4.46802395     -3.88846164      2.94151239
H           3.61486470     -4.01568253      3.43884438
O           2.72311382     -2.20531587      4.11761957
H           2.08437827     -2.02282762      3.36297718
          88
 Energy =     -0.79020970 a.u.  #Cluster:   42
C           4.34199332      2.73389119     -0.01899865
C           3.23869601      1.88397021      0.08423855
C           3.35967893      0.55124364     -0.31263018
C           4.62867909      0.06164774     -0.72027715
C           5.71347706      0.92726167     -0.87364099
C           5.56523613      2.27090019     -0.51697064
H           4.23993513      3.77407031      0.29787583
H           2.28691502      2.26552638      0.50804501
H           6.65339367      0.54558712     -1.26498177
H           6.40339526      2.95557673     -0.62812120
O           4.86912346     -1.30546282     -0.83330977
O           2.36992890     -0.40290667     -0.39583365
C           4.21244074     -1.94252104     -1.96444453
H           4.58284988     -1.50691567     -2.89586438
H           4.51695933     -2.98765731     -1.85818482
H           3.12491664     -1.82325789     -1.87487805
C           1.09201377     -0.30701844      0.29697644
H           0.60264901     -1.18830562     -0.19247822
C           0.29062758      0.99259231      0.06070682
H           0.73798234      1.84909854      0.66683326
O           0.46179315      1.45022077     -1.27549188
H          -0.00816902      0.87720784     -1.91627091
C           1.35957361     -0.57258352      1.78203745
H           0.46453872     -0.93964228      2.31713951
H           1.77121497      0.31970770      2.30759088
O           2.33674635     -1.62671004      1.91000567
H           2.85089976     -1.69098099      1.06020730
C          -1.16283775      0.76080927      0.40118151
C          -1.92896622     -0.16318451     -0.32749989
C          -1.73980067      1.47873098      1.44879351
C          -3.27433499     -0.36198926     -0.00265610
H          -1.50524468     -0.73626905     -1.14939901
C          -3.08793935      1.29014748      1.77754475
H          -1.14541682      2.19375050      2.02837768
C          -3.86104526      0.37752799      1.06242140
H          -3.51267780      1.86684765      2.60178563
O          -5.19944470      0.11366704      1.30570741
O          -3.87896262     -1.30264206     -0.80836377
C          -5.83187898      0.86029204      2.37589673
H          -5.82422643      1.93058300      2.14670085
H          -6.85106966      0.45748970      2.35744960
H          -5.33968888      0.64929091      3.33103213
C          -5.26586577     -1.63096440     -0.54787304
H          -5.46102836     -2.40367017     -1.29897370
H          -5.37601180     -2.01591911      0.47141985
H          -5.89380565     -0.74644689     -0.70014837
C           4.09923170      0.72886300      3.68859889
H           3.27843419      0.05111860      3.37663206
H           4.38241604      0.52706904      4.73868053
C           5.33432208      0.58396770      2.74547651
H           4.99671134      0.81056404      1.70878521
H           6.05032235      1.39501479      3.00565109
C           7.21279951     -0.74317261      1.83442567
H           7.79202154     -1.68091218      1.89461188
H           6.87119625     -0.64121472      0.78200588
H           7.88946690      0.09913499      2.05083150
C           5.09864055     -1.86853497      2.34003349
H           5.58697093     -2.85959462      2.40517670
H           4.16647062     -1.88940281      2.94701336
H           4.77626285     -1.72698291      1.28253632
C           6.52653865     -1.06154803      4.17889968
H           7.05144063     -2.04004202      4.22041211
H           7.22162133     -0.28214341      4.53067988
H           5.68717772     -1.10752043      4.89662761
N           6.02845186     -0.76696089      2.78058090
O           3.73631403      2.06258946      3.60393771
H           2.77742009      2.21609903      3.00161761
Cl         -2.23252239      3.13833747      4.61377981
C           5.92637973     -6.02982424      3.03307545
H           5.18956636     -6.75364344      3.41922795
H           5.56938944     -5.61745759      2.06576856
C           6.24721196     -4.92114621      4.04071172
H           5.35734693     -4.33129348      4.32864047
H           6.74419894     -5.30973827      4.94787157
O           7.14669904     -6.68461204      2.66569530
H           7.42663219     -7.31672552      3.35988366
O           7.12630148     -3.95774897      3.43016243
H           7.83963823     -4.44818530      2.94527309
C           1.07267559      4.12593445      3.99314549
H           2.03087210      4.34182814      4.49330497
H           0.33361942      4.90894355      4.20492876
C           1.25096257      3.79518560      2.48935283
H           0.30999954      3.95961334      1.93185405
H           2.05968593      4.38636150      2.03199659
O           0.57890046      2.90828531      4.61992103
H          -0.86035870      2.94195500      4.59631713
O           1.54688458      2.42588044      2.42895326
H           0.86142129      2.14075928      3.91696594
          88
 Energy =     -0.78563113 a.u.  #Cluster:   43
C           4.06591686      2.86200388     -0.85658662
C           2.78445360      2.32040542     -0.98272414
C           2.61245247      0.94609013     -0.79620176
C           3.71627627      0.11897113     -0.49967464
C           4.99747790      0.66937318     -0.38525511
C           5.16193473      2.04665790     -0.55510518
H           4.21659228      3.93881717     -0.99357139
H           1.91844177      2.94311497     -1.21909196
H           5.84668926      0.02309327     -0.15879949
H           6.17188480      2.48209876     -0.46205934
O           3.58225622     -1.23089215     -0.18957123
O           1.36210843      0.34914082     -0.98130075
C           3.00202804     -2.04754461     -1.24677799
H           3.66647563     -2.04096583     -2.11450404
H           2.96422315     -3.03707330     -0.77636803
H           1.99989889     -1.68199350     -1.50255367
C           0.41600440      0.42879647      0.12155787
H          -0.21347606     -0.46672869     -0.11232662
C          -0.37399288      1.75787253     -0.04758412
H           0.07331963      2.59377570      0.54131663
O          -0.28474540      2.22117084     -1.39986217
H           0.12865036      1.52085505     -1.97454857
C           1.03990163      0.29651103      1.51592883
H           0.27532570      0.45203846      2.30556044
H           1.87883681      1.00068072      1.66738989
O           1.47830399     -1.03838547      1.74432202
H           2.26645528     -1.23920111      1.15684433
C          -1.82733885      1.54385830      0.31755900
C          -2.69680200      0.92599400     -0.58882484
C          -2.28767189      1.94399383      1.58074011
C          -4.02946301      0.71057919     -0.22402206
H          -2.35515259      0.62542880     -1.58030023
C          -3.62185265      1.74959084      1.94153479
H          -1.60973566      2.42201204      2.28773130
C          -4.49995940      1.13948618      1.03727213
H          -3.99747055      2.06418326      2.91475862
O          -5.79193487      0.90828395      1.48997884
O          -4.85986474      0.14568965     -1.18573279
C          -6.82881615      1.52996782      0.68060252
H          -6.72096430      1.25175518     -0.37428517
H          -7.74320738      1.11524026      1.11784008
H          -6.77892607      2.61438062      0.81065138
C          -5.39805159     -1.15073485     -0.80125329
H          -6.08795382     -1.36790094     -1.62321550
H          -4.58369965     -1.87949058     -0.75969801
H          -5.92057951     -1.08313135      0.15960466
C           4.02401976      6.38187330     -1.88620655
H           3.98607133      5.41377916     -1.32939821
H           4.38389658      7.17055258     -1.19666212
C           4.88378061      6.22458832     -3.12065539
H           5.95032669      5.69347126     -2.75187167
H           4.45469789      5.50681762     -3.83758055
C           6.20533669      7.17424279     -4.96352680
H           6.58396542      8.09340583     -5.45484689
H           7.09658551      6.61471317     -4.59258787
H           5.71687655      6.54008642     -5.71608747
C           5.99352190      8.43529927     -2.86437469
H           6.34187765      9.34821191     -3.38136347
H           5.34523433      8.73524763     -2.02506353
H           6.88569362      7.92832332     -2.42827292
C           4.05160057      8.21444466     -4.36464339
H           4.30397557      9.20326093     -4.77657832
H           3.56493829      7.62268867     -5.15540663
H           3.28883041      8.34846805     -3.56355815
N           5.27231331      7.50634132     -3.81719494
O           2.68948679      6.81484472     -2.20283097
H           2.13966021      6.06156458     -2.49728130
Cl          7.56916930      5.39195209     -2.32674151
C           8.93282956      3.42826393      0.02807114
H           8.99349027      2.77746846      0.91755285
H           8.39396368      4.36284946      0.27682087
C          10.31047517      3.73632207     -0.57568369
H          11.14420292      3.39441913      0.06319866
H          10.40850700      3.29160342     -1.58371864
O           8.14930549      2.65461821     -0.88876099
H           7.92302418      3.20470338     -1.68765503
O          10.52980164      5.14926637     -0.65632756
H           9.84310703      5.56696272     -1.23155357
C           7.29684690     10.86217189     -6.36503780
H           7.24692603     11.91537115     -6.02214592
H           6.36219152     10.58112564     -6.88069600
C           8.53745546     10.62924236     -7.23015445
H           8.87990590      9.57853920     -7.18884515
H           8.37487694     10.93291105     -8.27968258
O           7.31809141     10.00518610     -5.21042590
H           8.16811265     10.14395346     -4.72275423
O           9.53770968     11.48349015     -6.64187431
H          10.39887439     11.35845430     -7.08942258
          88
 Energy =     -0.78248313 a.u.  #Cluster:   44
C           3.82692505      2.54777729      0.21583831
C           2.48018391      2.58143896     -0.15276114
C           1.86005794      1.40679078     -0.59098807
C           2.59140674      0.20136742     -0.67394579
C           3.94309351      0.17518431     -0.29713735
C           4.54920232      1.34943752      0.15091851
H           4.31559489      3.45714705      0.56062584
H           1.90652431      3.50485545     -0.10339009
H           4.49915644     -0.76391236     -0.35000184
H           5.59704583      1.33203854      0.45117198
O           2.05551912     -1.03340714     -0.98728213
O           0.55060295      1.46818757     -1.04946468
C           1.09875715     -1.11470632     -2.08785466
H           0.84336131     -0.13618906     -2.50082457
H           1.57629280     -1.75930665     -2.83101529
H           0.20097772     -1.58495902     -1.64464605
C          -0.50908415      1.07516297     -0.12234036
H          -1.20602304      0.55660501     -0.83393050
C          -1.11500356      2.40417782      0.38789425
H          -0.43202218      2.90676831      1.11081707
O          -1.27071075      3.31554987     -0.72493504
H          -0.55446952      3.12142323     -1.38693458
C          -0.08847174      0.13530046      1.02213141
H           0.53449151      0.63914080      1.78112756
H           0.44397929     -0.76320521      0.62674057
O          -1.25889517     -0.26329758      1.70796151
H          -1.77201072     -0.96041826      1.11260263
C          -2.50408119      2.22312025      0.96178937
C          -3.40040129      1.32325274      0.36941468
C          -2.88609246      2.95488913      2.09723913
C          -4.66884195      1.15141682      0.92277661
H          -3.08644292      0.71156915     -0.48947909
C          -4.15919229      2.79538119      2.64826219
H          -2.17895462      3.63771749      2.56926801
C          -5.05716804      1.90427134      2.05417220
H          -4.45971060      3.33617699      3.54418581
O          -6.36636924      1.90593474      2.52837105
O          -5.63929593      0.35133937      0.33682369
C          -6.80045785      0.62081030      3.06215743
H          -6.15545756      0.33824529      3.90033783
H          -7.81899525      0.83487087      3.39634972
H          -6.77594698     -0.13476500      2.26760228
C          -5.18710265     -0.97856867     -0.07924142
H          -6.12811617     -1.51494633     -0.21380836
H          -4.61483863     -0.89563081     -1.01088061
H          -4.55945352     -1.43761086      0.69720582
C          -6.34353332      4.75327027      0.89451015
H          -6.81471537      4.05872294      1.62897556
H          -5.49791779      5.26168419      1.39722647
C          -5.85193179      4.03729540     -0.36916566
H          -5.41560475      4.77244464     -1.08384114
H          -4.99980494      3.35940648     -0.08593879
C          -6.24703405      2.24241965     -2.02057116
H          -6.96491533      1.74975595     -2.69629907
H          -5.46930060      2.72300436     -2.63750903
H          -5.75132164      1.42309768     -1.43372547
C          -7.79883538      4.16512798     -1.89882903
H          -8.64430335      3.63724830     -2.36925130
H          -8.22349270      4.95599581     -1.23622785
H          -7.22839230      4.67050356     -2.69482122
C          -7.80689361      2.45899653     -0.13183220
H          -8.48040508      1.76532860     -0.65868565
H          -7.19809003      1.83886838      0.57997441
H          -8.42278915      3.13374421      0.49019363
N          -6.92867894      3.22478301     -1.09202291
O          -7.38247970      5.68073335      0.56611629
H          -7.01726994      6.57848658      0.41779498
Cl         -2.17415138     -1.79593655     -0.54633635
C           0.77907208     -3.47007262      1.00630669
H           1.53066640     -3.65819661      1.79693248
H           0.85312523     -2.41924933      0.65498079
C           0.91590553     -4.49213410     -0.13388063
H           0.30578436     -5.39229871      0.07871128
H           0.63103483     -4.07706524     -1.11366135
O          -0.47016859     -3.67325978      1.66848752
H          -1.20921338     -3.30381473      1.11884894
O           2.25229155     -5.00229132     -0.19635302
H           2.89288724     -4.27581409     -0.44969934
C           3.93367971     -3.43193739     -2.72308762
H           4.85221019     -2.97891171     -3.14028848
H           3.04420919     -3.02355228     -3.23335790
C           3.98844091     -4.96156520     -2.79004605
H           3.48553665     -5.42422834     -1.90909178
H           3.54167305     -5.35377881     -3.72148001
O           3.89299850     -3.08205988     -1.32270966
H           3.33975431     -2.26010625     -1.19298128
O           5.34620248     -5.41110501     -2.86602718
H           5.80251598     -5.22856474     -2.01609477
          88
 Energy =     -0.77937692 a.u.  #Cluster:   45
C           3.21215749      2.97028282      1.58372197
C           2.15309034      2.55131246      0.77364996
C           1.90506741      1.18361708      0.63011902
C           2.73400013      0.23853412      1.27462775
C           3.79181047      0.66495205      2.08521237
C           4.01821760      2.03519533      2.24232483
H           3.41386894      4.03602972      1.69275369
H           1.55178641      3.27972884      0.21805051
H           4.41741709     -0.07509341      2.58164786
H           4.83888881      2.37468470      2.87429534
O           2.50254606     -1.13137214      1.22329469
O           0.93561832      0.73245278     -0.26123616
C           2.53992359     -1.70466741     -0.11703504
H           3.53484792     -1.56607906     -0.54850566
H           2.35875570     -2.77125941      0.08306764
H           1.75644221     -1.26310923     -0.74146363
C          -0.43365857      0.59441568      0.20628505
H          -0.76461211     -0.25091698     -0.44868863
C          -1.17174373      1.91158600     -0.13146491
H          -0.74060680      2.76506411      0.44616840
O          -0.88270244      2.30356457     -1.48392431
H          -1.11115004      1.59076950     -2.11911840
C          -0.58022872      0.21096587      1.68577010
H          -1.64194433      0.27464121      2.01145961
H           0.04660790      0.83855973      2.34387872
O          -0.26853552     -1.16401587      1.87529455
H           0.70757017     -1.31823825      1.71828508
C          -2.67277770      1.81801272      0.02521940
C          -3.36866504      0.64818858     -0.31662858
C          -3.37945181      2.95302933      0.43646096
C          -4.76264778      0.61556894     -0.25490017
H          -2.83726706     -0.24632526     -0.64377746
C          -4.77420401      2.93286315      0.51360640
H          -2.84771842      3.87279522      0.68071584
C          -5.47677845      1.76515158      0.18128274
H          -5.32472472      3.82423761      0.79782447
O          -6.83872946      1.90310984      0.30408056
O          -5.48565478     -0.46619317     -0.71273679
C          -7.66675034      0.71980907      0.10237741
H          -7.54695873      0.36248882     -0.92656534
H          -7.37422837     -0.06851649      0.81790392
H          -8.66953153      1.10742215      0.29156981
C          -5.10668078     -1.75794607     -0.15063550
H          -5.86395569     -2.41800404     -0.58531423
H          -4.09856756     -2.02856219     -0.46396674
H          -5.20393071     -1.72655128      0.94825015
C          -5.26694088      1.08806818      4.95297880
H          -6.09702149      0.44516618      5.31977546
H          -4.44692288      0.41840489      4.62612658
C          -5.67875566      2.03995789      3.82595220
H          -4.96117480      2.88301421      3.75212539
H          -5.63087611      1.47250209      2.84562977
C          -7.37626587      3.55540120      2.86064731
H          -8.39544236      3.96781431      2.91360153
H          -6.66565527      4.39612867      2.84916215
H          -7.28930493      3.03073464      1.87315769
C          -7.20721641      3.34022204      5.30707780
H          -8.21401403      3.75388665      5.46055675
H          -6.97079758      2.67018397      6.16434422
H          -6.47341514      4.16142863      5.36781385
C          -8.12158828      1.48756284      3.95386198
H          -9.13165673      1.84553198      4.18351118
H          -8.13007737      0.98609539      2.95702236
H          -7.85753410      0.66114874      4.65288276
N          -7.09496348      2.59462747      3.99509736
O          -4.88770378      1.87066597      6.10117930
H          -3.92232249      1.99520927      6.13854480
Cl         -6.31621034     -0.81847463      3.01118923
C           2.30679077      3.04977432     -3.01401364
H           3.14723074      3.75553131     -3.13867856
H           1.71164781      3.01453302     -3.94619777
C           2.77455140      1.64394515     -2.61547628
H           3.67169064      1.66101973     -1.97652370
H           1.96882046      1.07668463     -2.10739306
O           1.53345457      3.62722541     -1.96230372
H           0.72588142      3.06510194     -1.77464675
O           3.08020053      1.00061901     -3.86968108
H           3.49298903      0.13303631     -3.70228176
C           4.47610624     -5.28125735     -0.33790189
H           5.54818484     -5.54278427     -0.30308913
H           4.09671694     -5.43968530     -1.36416413
C           3.66932418     -6.05765435      0.71460866
H           3.99609093     -5.82287516      1.74584802
H           2.58532392     -5.86988330      0.62863642
O           4.29463873     -3.87544170     -0.13304736
H           4.78081419     -3.57768835      0.66565940
O           3.95124521     -7.45489358      0.59177379
H           3.51303486     -7.82598460     -0.20021833
          88
 Energy =     -0.77724395 a.u.  #Cluster:   46
C           4.07963053      3.38460928      0.47203950
C           2.88107756      2.79004735      0.08508487
C           2.78371980      1.39298322      0.01306991
C           3.89729908      0.58267232      0.32760907
C           5.10279338      1.19945993      0.73349792
C           5.18505843      2.58433617      0.80043999
H           4.16361374      4.46653558      0.51339170
H           2.01989657      3.39892263     -0.18099296
H           5.95266740      0.56412716      0.99021127
H           6.11955342      3.05477782      1.10631427
O           4.00230018     -0.77922629      0.30438206
O           1.61341154      0.83258383     -0.48230521
C           2.89215899     -1.58742637     -0.18353538
H           2.45390659     -1.15544535     -1.08574176
H           3.38942826     -2.54209475     -0.38247640
H           2.13581060     -1.67919206      0.62566346
C           0.51325706      0.58532029      0.44557344
H           0.02735444     -0.28284479     -0.08001676
C          -0.36685414      1.85247519      0.38276272
H           0.09199605      2.70180405      0.93421944
O          -0.46561650      2.27451194     -1.00327996
H           0.41578205      2.10468440     -1.44615808
C           0.88396321      0.20575472      1.88869190
H           0.16886481      0.65644466      2.60599598
H           1.91157086      0.52188807      2.15879440
O           0.85738880     -1.18951179      2.03035955
H          -0.21977754     -1.55181214      1.82622469
C          -1.78235191      1.57875969      0.81063900
C          -2.59300659      0.77236067     -0.00372466
C          -2.29647623      2.11511437      1.99138140
C          -3.94501691      0.61633142      0.30513984
H          -2.16503042      0.27495397     -0.88039929
C          -3.63636252      1.92598330      2.33487590
H          -1.63783039      2.66018287      2.67483828
C          -4.47594575      1.18434065      1.48872085
H          -4.04287336      2.30241691      3.27240005
O          -5.78468898      1.16827446      1.90317452
O          -4.80211878     -0.01470632     -0.58766833
C          -6.63448408      0.11220235      1.37486896
H          -6.18415963     -0.86518149      1.57962701
H          -7.55895693      0.26179514      1.94084661
H          -6.77969081      0.26040697      0.29741276
C          -4.40350148     -1.37274498     -0.95780601
H          -5.33532226     -1.79147407     -1.34601755
H          -3.62524890     -1.31763841     -1.72354977
H          -4.03686958     -1.92427131     -0.07901775
C          -1.87104894      5.04016492      5.02617451
H          -2.80890245      4.57018870      5.39082975
H          -1.01336224      4.45463199      5.41640691
C          -1.79708296      5.12497299      3.49631023
H          -0.89898690      5.70934489      3.19152122
H          -1.63913157      4.07674321      3.08520745
C          -2.90623113      5.53611331      1.33185784
H          -3.75385966      5.97404170      0.77815280
H          -1.98689457      5.97710253      0.91013403
H          -2.88127116      4.45331241      1.03278242
C          -3.09918355      7.21249044      3.12962094
H          -4.02375760      7.66669411      2.73587631
H          -3.07105345      7.39477289      4.22912724
H          -2.24708906      7.76035573      2.69291684
C          -4.29633693      5.06668793      3.30562904
H          -5.17647594      5.40618350      2.73057464
H          -4.25108369      3.95432969      3.17890758
H          -4.49624000      5.27679310      4.37072148
N          -3.02778324      5.73266167      2.82480460
O          -1.90167408      6.34547120      5.60451120
H          -0.99565986      6.67400260      5.79200431
Cl         -1.77436477     -1.62081831      1.27945245
C          -3.61281105      3.67143323     -1.54610772
H          -4.18635291      4.52694848     -1.94148231
H          -4.18558422      3.19242854     -0.72970737
C          -3.25381953      2.65208048     -2.63631459
H          -3.06421217      3.13098933     -3.61495272
H          -2.36759232      2.04825183     -2.34625992
O          -2.44447991      4.27333787     -0.95940223
H          -1.65700597      3.64850024     -1.02770256
O          -4.37947956      1.81504009     -2.88891733
H          -4.54180887      1.19071865     -2.12759898
C           2.72600545     -1.22037071      4.48194094
H           1.81195142     -1.29082912      3.84043478
H           3.06040816     -2.23812457      4.74101983
C           3.85526222     -0.40469410      3.83528377
H           3.46460149      0.39947828      3.18567341
H           4.52508954      0.03524008      4.59569638
O           2.26997757     -0.52133356      5.65187750
H           2.90435360     -0.63862590      6.38152980
O           4.70289119     -1.28147564      3.08663020
H           4.37069371     -1.35064028      2.15336811
          88
 Energy =     -0.77238312 a.u.  #Cluster:   47
C           3.62433058      2.66826669      0.40246844
C           2.50444242      2.26293470     -0.32490331
C           2.36948607      0.91573770     -0.66791907
C           3.36513091     -0.01432310     -0.29819713
C           4.50099394      0.40035061      0.39316223
C           4.61600250      1.74700866      0.76130189
H           3.69576318      3.70909642      0.75312999
H           1.71787744      2.98115199     -0.57884626
H           5.26167056     -0.32795358      0.67003748
H           5.46783171      2.07993688      1.35837020
O           3.21830605     -1.39520010     -0.47074861
O           1.29909753      0.47243239     -1.44670064
C           3.05860372     -1.82838897     -1.84419393
H           3.95440151     -1.57178381     -2.41668669
H           2.95784969     -2.91367653     -1.73499083
H           2.15576513     -1.38229038     -2.27441991
C           0.00789746      0.26853887     -0.79578958
H          -0.41943974     -0.49169185     -1.50141430
C          -0.80442206      1.57623007     -0.83969114
H          -0.31090877      2.39046183     -0.21751426
O          -0.77489513      2.00752428     -2.23309114
H          -0.92491503      2.97949166     -2.24643582
C           0.12021018     -0.29870917      0.62730550
H          -0.87310302     -0.36112907      1.11832464
H           0.79915432      0.30403335      1.26542144
O           0.54681175     -1.65698870      0.55734087
H           1.51629926     -1.69481009      0.32041956
C          -2.24002595      1.33987182     -0.44690172
C          -3.09743105      0.70109818     -1.35037520
C          -2.70689623      1.72068875      0.81602514
C          -4.41540345      0.41700379     -0.97466681
H          -2.76416572      0.43047791     -2.35086688
C          -4.03436463      1.46989653      1.18518522
H          -2.03516949      2.23511558      1.52438884
C          -4.89042698      0.82035136      0.28741531
H          -4.41017891      1.77074279      2.16236085
O          -6.16962820      0.51750321      0.74527980
O          -5.18608214     -0.21688236     -1.95214899
C          -7.22994101      1.17840969      0.00114640
H          -7.16113345      0.93868704     -1.06355074
H          -8.13082636      0.75239387      0.45790010
H          -7.17347614      2.25740458      0.17337957
C          -5.76310590     -1.47113169     -1.50154069
H          -6.44564464     -1.73319182     -2.31665552
H          -4.96557186     -2.20885800     -1.38789497
H          -6.30779906     -1.33320462     -0.55776260
C          -1.10105281     -0.91023850     -3.95010161
H          -1.16703208     -1.99395764     -3.72755103
H          -0.80280781     -0.36241937     -3.02122893
C          -0.15958527     -0.66460433     -5.13338121
H           0.71150537     -1.35201833     -5.08063309
H          -0.71694001     -0.91727401     -6.07301642
C           1.07455775      0.91893151     -6.56302295
H           1.43493533      1.94793462     -6.73453900
H           1.95583978      0.26101669     -6.62884313
H           0.42255530      0.67080730     -7.43267059
C           1.30403847      1.10801869     -4.12824856
H           1.88000100      2.02380879     -4.33166967
H           0.76243094      1.30568371     -3.14827888
H           2.01505808      0.29582427     -3.91737226
C          -0.82169643      1.73540707     -5.21744254
H          -0.50340146      2.77227270     -5.39815506
H          -1.59096100      1.45183373     -5.95691272
H          -1.33361344      1.69747137     -4.22039854
N           0.34845693      0.77676760     -5.24582329
O          -2.38859921     -0.45736274     -4.40437081
H          -3.04152062     -0.42612186     -3.64626329
Cl          0.22262331      3.41504433      1.56454961
C           2.35856338      1.94234457      3.60949841
H           2.41180591      1.73465961      2.52536471
H           2.96247418      1.20949300      4.17031133
C           2.77803290      3.39174985      3.90896773
H           2.08835967      3.85345354      4.64069745
H           3.81205419      3.45717869      4.28526062
O           1.02900373      1.68809875      4.07397988
H           0.37914186      2.21489691      3.53101632
O           2.79732756      4.18359362      2.72276238
H           1.86291102      4.15122351      2.27610461
C           1.15820568      1.15678877    -10.08444663
H           1.60246495      1.31739265    -11.08126307
H           0.55983994      2.04633458     -9.80151109
C           0.32358422     -0.12928237    -10.02099157
H          -0.15255768     -0.36570707    -10.98802354
H           0.92848868     -0.99594864     -9.68537020
O           2.19052381      1.13082575     -9.08828696
H           2.95648907      0.60488611     -9.40113676
O          -0.67975070     -0.02846556     -8.99863522
H          -1.43147137      0.52248431     -9.30688981
          88
 Energy =     -0.77127659 a.u.  #Cluster:   48
C           3.35319926      2.95759508     -0.34907145
C           2.23811460      2.17827731     -0.66593641
C           2.20223887      0.84242564     -0.25851334
C           3.30455768      0.27029095      0.42237962
C           4.42332841      1.05577339      0.72637988
C           4.43037023      2.40447419      0.35262970
H           3.38466924      4.00324082     -0.65146304
H           1.40100547      2.58102510     -1.24074273
H           5.26034307      0.61185303      1.25896988
H           5.28867992      3.02472287      0.60579623
O           3.29317882     -1.02680860      0.90517483
O           1.14978237      0.00706104     -0.60248947
C           3.11994607     -2.07287943     -0.10526373
H           3.99983670     -2.08298226     -0.75729293
H           3.05257099     -2.97831770      0.51094163
H           2.19639346     -1.92164909     -0.67955898
C          -0.07587382      0.10529775      0.15571270
H          -0.55993925     -0.84356836     -0.19404862
C          -0.89876585      1.35260659     -0.26363047
H          -0.42606498      2.29406661      0.10402752
O          -0.84321318      1.38222928     -1.69176361
H          -1.57282930      1.95977012     -2.06021819
C           0.14497657      0.11550109      1.68094011
H          -0.82463906      0.16337369      2.21917945
H           0.78700250      0.95950028      1.99554288
O           0.70168217     -1.11168496      2.13119541
H           1.63051135     -1.21145140      1.77043098
C          -2.32994243      1.22794271      0.22390086
C          -3.20124842      0.36328274     -0.44839311
C          -2.77561195      1.97647035      1.31771069
C          -4.54199759      0.29290904     -0.05444786
H          -2.85224966     -0.24506654     -1.28874338
C          -4.11057483      1.90734454      1.72154804
H          -2.09086842      2.63415677      1.85674373
C          -4.99736235      1.07361252      1.03225568
H          -4.48392351      2.50728515      2.56064250
O          -6.31892832      1.02584737      1.48020566
O          -5.36228839     -0.46948968     -0.86686094
C          -7.24238452      1.68304646      0.55612196
H          -7.24438806      1.14231639     -0.39648541
H          -8.19844648      1.61430721      1.07896498
H          -6.93041459      2.72489696      0.40225940
C          -6.12776746     -1.49390343     -0.17528572
H          -6.78440737     -1.86439957     -0.96970247
H          -5.44059670     -2.27152203      0.17239744
H          -6.69840182     -1.05864146      0.65123677
C           6.14509108     -2.51841958     -2.11099980
H           5.96736854     -2.09707262     -3.12065523
H           5.38956602     -2.08822421     -1.40835388
C           6.11151685     -4.05465780     -2.06626307
H           7.08437051     -4.43366962     -1.68491780
H           5.32695995     -4.38619011     -1.32824839
C           5.58629029     -6.19019852     -3.18254845
H           5.39729821     -6.72086371     -4.12996674
H           6.43945692     -6.66188656     -2.67545767
H           4.67491702     -6.34733334     -2.55067706
C           6.98242400     -4.52229496     -4.34471664
H           6.75442742     -4.89837796     -5.35512066
H           7.24632887     -3.45249896     -4.44346493
H           7.88045971     -5.04198793     -3.97618142
C           4.56480993     -4.13158946     -4.00232910
H           4.16102849     -4.68701284     -4.84393062
H           3.64565300     -4.22171659     -3.11379221
H           4.61732006     -3.07249257     -4.24075829
N           5.80004387     -4.70506619     -3.41361015
O           7.46402746     -2.07275315     -1.78727385
H           7.57300741     -1.98923866     -0.81542948
Cl          2.87630227     -4.55391966     -1.70943372
C          -6.99953419      0.41164112      5.35337462
H          -7.32804023      0.55878774      6.39906910
H          -7.85991777      0.58390435      4.68304513
C          -5.80902931      1.30801694      4.98184317
H          -5.46367193      1.92915890      5.83120955
H          -4.96068668      0.71240253      4.59450372
O          -6.62678111     -0.97047001      5.32693731
H          -6.41465483     -1.25611824      4.41446987
O          -6.21211909      2.28155351      4.01551255
H          -6.39043845      1.84807072      3.13505017
C          -4.51849625      3.52988162     -1.56779392
H          -4.13230334      3.12763703     -0.60994984
H          -4.10066616      4.53857847     -1.73381646
C          -4.22809671      2.59341972     -2.74749917
H          -4.34177757      1.52545800     -2.47364128
H          -4.86060676      2.81772252     -3.62154379
O          -5.93326039      3.59287242     -1.35626323
H          -6.35823397      4.16141043     -2.02967288
O          -2.84062577      2.84416921     -3.06661988
H          -2.64622717      2.54579214     -3.97962130
          88
 Energy =     -0.76957315 a.u.  #Cluster:   49
C           3.24712123      3.26822652     -0.36181195
C           1.93847105      2.85971068     -0.62836152
C           1.62215967      1.50140082     -0.57323356
C           2.60602414      0.53320351     -0.24498292
C           3.91744570      0.95950278      0.02489549
C           4.22318539      2.31550863     -0.03086409
H           3.50775467      4.32027410     -0.41574606
H           1.16957281      3.58322937     -0.88656117
H           4.69173410      0.23117901      0.28637586
H           5.24032051      2.64790985      0.18788896
O           2.16874190     -0.75992128     -0.21314830
O           0.35266771      1.07334991     -0.97608760
C           3.16416095     -1.79655511      0.08271307
H           3.66482275     -1.58010391      1.03670130
H           2.53308941     -2.69396973      0.18574903
H           3.86186327     -1.88894586     -0.75284696
C          -0.68416700      0.98844021      0.03425829
H          -1.32669349      0.19288174     -0.41913291
C          -1.38857581      2.37459969      0.03109023
H          -0.85630271      3.11055558      0.67800166
O          -1.34635198      2.92409554     -1.29896429
H          -0.60581072      2.45663103     -1.80780463
C          -0.22449215      0.57543608      1.43503928
H          -1.00064678      0.78953270      2.19780078
H           0.72525106      1.05932336      1.73576679
O          -0.09569285     -0.84379802      1.48014348
H           0.74508484     -1.11798944      0.99055214
C          -2.85048321      2.25953134      0.39226358
C          -3.75053480      1.75794534     -0.55200535
C          -3.31529058      2.67915881      1.65514085
C          -5.11508115      1.71670246     -0.25983493
H          -3.37452224      1.43106125     -1.52545819
C          -4.67066514      2.63712091      1.95238556
H          -2.60831715      3.03172675      2.41028315
C          -5.58311204      2.17215515      0.99064157
H          -5.05269641      2.95480379      2.92702964
O          -6.91746353      2.36402919      1.32130883
O          -6.06297143      1.36990034     -1.22197254
C          -7.82612694      1.27072344      1.00962685
H          -7.48780742      0.36153490      1.51897580
H          -8.77200852      1.63481903      1.42965444
H          -7.88283367      1.12482819     -0.07325506
C          -5.77834505      0.12690383     -1.92658783
H          -6.72516416     -0.08089362     -2.43513475
H          -4.96555084      0.28745678     -2.64086325
H          -5.52736131     -0.66611853     -1.21172451
C          -6.04223508      5.29370274     -0.28696710
H          -5.32213752      5.07740051      0.53211124
H          -6.18501197      6.39072453     -0.35960010
C          -5.52238536      4.67184730     -1.59655745
H          -4.46855170      4.99735113     -1.77077702
H          -5.46934728      3.55641690     -1.48262433
C          -5.69254248      4.40647794     -4.05193352
H          -6.28912300      4.58329599     -4.96635558
H          -4.69471967      4.85198852     -4.21593906
H          -5.54587612      3.31119357     -3.96561004
C          -6.53597820      6.46844634     -2.99334050
H          -7.09356161      6.72564408     -3.91108630
H          -7.09293183      6.91384512     -2.14389606
H          -5.55401705      6.97401403     -3.04403329
C          -7.73583009      4.32040284     -2.68685108
H          -8.39968179      4.55382819     -3.53314033
H          -7.64710862      3.21961044     -2.60264046
H          -8.24205582      4.65068264     -1.74257384
N          -6.37810634      4.97398221     -2.82401836
O          -7.33479478      4.80785126      0.03915497
H          -7.28181163      3.91127041      0.50931397
Cl          5.05489143     -3.92547465      0.77515084
C           3.65290858     -4.96838607      4.04347035
H           4.40177489     -4.17941965      4.24418387
H           3.29483167     -5.39009348      4.99744830
C           2.50811281     -4.43684181      3.16352473
H           2.16263418     -5.21678656      2.45964740
H           1.65158872     -4.08574723      3.77687536
O           4.29722650     -6.08683218      3.41922809
H           4.71242339     -5.80205284      2.56522394
O           2.92604649     -3.31278214      2.41393350
H           3.89035017     -3.61011350      1.75044349
C           1.11678682     -1.55694738      4.72954956
H           1.31109882     -2.61827603      4.45699670
H           1.06274034     -1.46585202      5.82516954
C           2.16756110     -0.62293858      4.09954014
H           1.83075060     -0.27645599      3.10459037
H           2.37481805      0.25610693      4.73379711
O          -0.19900972     -1.19364001      4.28484859
H          -0.22990114     -1.25556988      3.29026536
O           3.41115884     -1.28468692      3.98342258
H           3.31292219     -2.12499309      3.35099230
          88
 Energy =     -0.76644916 a.u.  #Cluster:   50
C           3.56783672      2.69879477      0.75449450
C           2.49908513      2.21717589     -0.00996960
C           2.34946024      0.83821784     -0.17279619
C           3.26593245     -0.05420900      0.42705175
C           4.33317993      0.43504188      1.18615552
C           4.47327377      1.81655044      1.35149250
H           3.69989083      3.77397511      0.87580291
H           1.80095119      2.89907039     -0.49234636
H           5.04110623     -0.26043853      1.63760203
H           5.31031530      2.19652682      1.95181118
O           3.10006515     -1.43458289      0.38316042
O           1.39125673      0.31358447     -1.03047730
C           3.21223838     -2.02209767     -0.94707858
H           4.23383102     -1.89248723     -1.31162112
H           2.98241098     -3.08066450     -0.74297084
H           2.48180562     -1.56807112     -1.62598034
C           0.03273091      0.16859137     -0.54774439
H          -0.32940540     -0.60735365     -1.26941878
C          -0.72989910      1.49650861     -0.78253601
H          -0.18157691      2.36530624     -0.35786506
O          -0.77714552      1.61398492     -2.20827137
H          -0.75152143      2.59003836     -2.47646590
C          -0.04457555     -0.32974043      0.90315793
H          -1.08701510     -0.34914694      1.27699722
H           0.57724684      0.26677457      1.59280634
O           0.35451588     -1.70003133      0.95574650
H           1.35628489     -1.76034246      0.81925648
C          -2.15663315      1.42206915     -0.27087016
C          -3.11544983      0.75848429     -1.04195503
C          -2.51204750      1.99586765      0.96275905
C          -4.43255162      0.67237445     -0.58433372
H          -2.84088744      0.31392959     -2.00260990
C          -3.82090717      1.90669451      1.42697305
H          -1.76500326      2.52345419      1.55784093
C          -4.79055066      1.24680715      0.65344813
H          -4.11806063      2.34094758      2.38277320
O          -6.05259046      1.11583686      1.21397055
O          -5.35526570      0.08866269     -1.44565732
C          -7.11161375      1.75176280      0.44734563
H          -7.08008496      1.42887645     -0.59951905
H          -8.01378447      1.39255246      0.95460518
H          -7.00890515      2.83664117      0.53248701
C          -5.96383692     -1.12615188     -0.92622456
H          -6.72610009     -1.34634728     -1.68225180
H          -5.20486927     -1.91175240     -0.88317337
H          -6.40973322     -0.94407289      0.05788182
C           1.08531508     -4.79970939      1.24326693
H           1.12068081     -3.77696244      1.67958524
H           1.25045193     -5.53953974      2.04758852
C          -0.19941938     -5.05353181      0.42774354
H          -0.20268612     -4.33627270     -0.42861321
H          -0.15742409     -6.07398092     -0.01022766
C          -2.64690553     -5.24013887      0.30101818
H          -3.60965098     -5.11699867      0.82544621
H          -2.66020474     -4.60300417     -0.59504514
H          -2.59270973     -6.29393552     -0.01789678
C          -1.64354116     -3.46496142      1.67935028
H          -2.56312127     -3.31655682      2.26244482
H          -0.79899738     -3.16799370      2.35471289
H          -1.60866917     -2.75932499      0.83189453
C          -1.50799421     -5.81240797      2.38650903
H          -2.45233841     -5.86044712      2.91680039
H          -1.11122376     -6.80229786      2.20697529
H          -0.73136799     -5.33531973      3.34100538
N          -1.48774717     -4.89926682      1.23058955
O           2.14978002     -4.82994539      0.27970679
H           2.60782900     -5.69228644      0.30125618
Cl          0.23945609     -4.58893589      4.32894951
C           4.91734048      0.08133779      4.92698253
H           3.88077843      0.16963896      5.29744303
H           4.92966750     -0.48312113      3.97575644
C           5.59702138      1.44540597      4.78494232
H           4.87749059      2.25027618      4.54672569
H           6.16640083      1.70219912      5.69941043
O           5.71171028     -0.62128565      5.90531157
H           5.30737089     -1.49084915      6.10388012
O           6.48231510      1.46203608      3.65563546
H           7.21165238      0.81989640      3.79366110
C          -3.06475306      2.99562764     -3.82469782
H          -2.52068565      2.10167412     -3.44848822
H          -4.14283769      2.89423782     -3.60153672
C          -2.47779997      4.28934386     -3.26330345
H          -2.69915749      5.15195705     -3.91863849
H          -2.81497194      4.48976013     -2.22990174
O          -2.90423656      3.10495829     -5.25383423
H          -2.96543852      2.21879578     -5.66458842
O          -1.04546593      4.16459524     -3.12414131
H          -0.63377919      4.12897270     -4.02344976
